ITEM: TIMESTEP
100
ITEM: NUMBER OF ATOMS
10
ITEM: BOX BOUNDS f f f
0 1e-08
0 1e-08
0 1e-08
ITEM: ATOMS radius x y z v_x v_y v_z
1.199999999999999992e-10 3.215030156552832021e-09 4.866272899156107530e-09 3.678092971850881408e-09 7.856236146586225004e+02 -1.756082905018850624e+03 1.524302980030130925e+02
1.199999999999999992e-10 7.651490459546658697e-09 5.129451496737097531e-09 5.276528891746325092e-09 -4.015401280491839771e+02 -2.091958298317008484e+03 2.532228169934546997e+02
1.199999999999999992e-10 5.601382561961886479e-09 4.214065324670808861e-09 7.270839083237233909e-09 -6.370022883854862812e+02 1.459493893797435476e+03 5.632937129734382324e+02
1.199999999999999992e-10 9.877335340579256444e-09 3.732999975701396866e-09 9.648163521302209211e-09 7.748818487920299276e+02 1.584366272987167122e+03 -1.168022676497292878e+03
1.199999999999999992e-10 4.446569968774866053e-09 9.435471555741348514e-09 5.958538361423246669e-09 -2.142271104892329276e+03 9.531766479762151221e+02 1.669306605928949921e+03
1.199999999999999992e-10 9.127871982426656715e-09 4.786859125097196494e-09 2.869798218820282131e-09 6.260709098362744953e+02 -3.676676805209164058e+02 -1.156881503592825993e+03
1.199999999999999992e-10 9.929356712851802926e-09 4.419005690470792385e-09 5.613131391773080069e-09 6.160514114922245881e+02 -2.287452111125301144e+03 -1.276861819678618758e+03
1.199999999999999992e-10 7.119330261807190270e-09 4.713736372196063672e-09 3.393539036204648139e-09 3.223992009670116659e+02 -1.721535307592650383e+02 -1.516097930297112953e+03
1.199999999999999992e-10 5.693569475822757734e-09 1.294822477045616667e-09 4.989831795024496703e-09 1.747235943776583099e+03 -1.240435567090488803e+03 4.821448201038650723e+02
1.199999999999999992e-10 9.350964892163713616e-09 1.970897502919452409e-09 7.661043457749734090e-09 -1.432795269976449163e+03 -1.018881091734211054e+03 3.505632536921572864e+03
ITEM: TIMESTEP
200
ITEM: NUMBER OF ATOMS
10
ITEM: BOX BOUNDS f f f
0 1e-08
0 1e-08
0 1e-08
ITEM: ATOMS radius x y z v_x v_y v_z
1.199999999999999992e-10 3.371130015105801244e-09 4.665520426082863758e-09 3.721619082799669559e-09 8.086613975220661814e+02 -1.492872480235829698e+03 3.964859143870826870e+02
1.199999999999999992e-10 7.942463191741271268e-09 5.030284227896422780e-09 5.394644819960052410e-09 3.645864900623952963e+03 -1.281562485432533833e+02 1.792833226109599082e+03
1.199999999999999992e-10 5.485492607374520145e-09 4.366848376978967959e-09 7.270287991168789730e-09 -1.912557612257013488e+02 9.136180805860627743e+02 1.134016629213182568e+03
1.199999999999999992e-10 9.886102169679920768e-09 3.659209064936893661e-09 9.611016231859676268e-09 -8.291643292894348178e+02 -3.604390164851932241e+03 1.073459900721233993e+02
1.199999999999999992e-10 4.170293392610828187e-09 9.450591705026300394e-09 6.084505166749740507e-09 -4.257543271465216094e+03 -1.938207303118054142e+03 5.396329205942272438e+02
1.199999999999999992e-10 9.139593909586623642e-09 4.624660785402897875e-09 2.757767914863147101e-09 4.880965637304336724e+02 -1.862873776976359977e+03 -2.246603907019070903e+03
1.199999999999999992e-10 9.988320839083972452e-09 4.329943807418944049e-09 5.521905101374905804e-09 2.358768006895366398e+03 -2.196701811245708313e+02 -1.626430418561357328e+03
1.199999999999999992e-10 7.231041686237428945e-09 4.734541008287965076e-09 3.436156808978420682e-09 3.415384510815836165e+03 -1.489829995680886213e+03 2.485153310996343407e+03
1.199999999999999992e-10 5.704578360482237918e-09 1.244814208459736660e-09 5.055950254977677392e-09 4.906258416568670100e+02 -5.587761592372697805e+02 1.371821895659909615e+03
1.199999999999999992e-10 9.352391885796558617e-09 1.911788497344060789e-09 7.836003348299028866e-09 2.121431878449261603e+03 -4.984761840136103501e+02 8.450330732281259998e+02
ITEM: TIMESTEP
300
ITEM: NUMBER OF ATOMS
10
ITEM: BOX BOUNDS f f f
0 1e-08
0 1e-08
0 1e-08
ITEM: ATOMS radius x y z v_x v_y v_z
1.199999999999999992e-10 3.614498614434602624e-09 4.617509377445709944e-09 3.718874127760774099e-09 5.203739117776684679e+02 -5.097535584877928159e+02 3.477356382168528626e+02
1.199999999999999992e-10 8.237838432028451998e-09 4.962307260037169563e-09 5.454186053881589841e-09 2.574157636401108903e+03 -6.507186574517083955e+01 -1.384936465648873309e+03
1.199999999999999992e-10 5.534679854580330779e-09 4.603261061484810966e-09 7.224119388323337201e-09 7.390864014616893201e+02 1.233999615486581206e+03 8.813168695331678464e+02
1.199999999999999992e-10 9.709213607192396355e-09 3.402118743473265637e-09 9.502612233140502797e-09 1.843920258225010684e+02 -4.475309794416682507e+02 -2.166612713137642459e+03
1.199999999999999992e-10 3.950329834647001640e-09 9.227882161280301354e-09 6.016791940820302834e-09 -2.097971825351926782e+03 -2.440351605031501094e+03 -9.890359823378045121e+02
1.199999999999999992e-10 9.170222819675245530e-09 4.493245187649939188e-09 2.418546053248316831e-09 1.091691452699604724e+03 1.097747103956692172e+03 -1.507755812851492465e+03
1.199999999999999992e-10 9.865765772215418724e-09 4.134457201348671818e-09 5.566498340515734092e-09 -6.109804331478387667e+02 -3.367934123936144715e+03 2.679434313317166925e+03
1.199999999999999992e-10 7.316807669361025981e-09 4.562183916437820462e-09 3.560414004377297677e-09 -8.215072953745003588e+02 -8.117498564839067967e+02 -8.527600386777510266e+01
1.199999999999999992e-10 5.593570215093499095e-09 1.307344896453615807e-09 5.321948202474142351e-09 -3.068279013662724537e+03 1.357649488698322557e+03 2.656220101045275442e+03
1.199999999999999992e-10 9.347020855427590372e-09 1.928807402572930075e-09 8.016226233844246721e-09 -3.237475831763576934e+02 -9.982267273471886710e+02 1.087245390027377425e+03
ITEM: TIMESTEP
400
ITEM: NUMBER OF ATOMS
10
ITEM: BOX BOUNDS f f f
0 1e-08
0 1e-08
0 1e-08
ITEM: ATOMS radius x y z v_x v_y v_z
1.199999999999999992e-10 3.652752433263124217e-09 4.557269365562335046e-09 3.813392347639835467e-09 4.959076291960498111e+02 -1.755747594300370565e+03 2.674435190413856162e+03
1.199999999999999992e-10 8.355609216228353878e-09 4.958205585831640008e-09 5.298418175992383706e-09 1.368339797310471340e+03 1.113133939340785332e+02 -2.441317389206607459e+03
1.199999999999999992e-10 5.648931387205958055e-09 4.839204947954845902e-09 7.244951875405352070e-09 2.751035283848881363e+02 1.468233112743842412e+03 -1.485749798193618290e+03
1.199999999999999992e-10 9.734690842090999300e-09 3.366538325584045887e-09 9.383786244209838656e-09 -3.143733323005733382e+00 -1.215941031651495905e+03 -7.535371803772178509e+02
1.199999999999999992e-10 3.912740625160727466e-09 9.033869570535689090e-09 5.899009188016244073e-09 9.078072209467193261e+02 -2.972665439183213039e+03 -1.853813264723504517e+03
1.199999999999999992e-10 9.230947528288536237e-09 4.741505442207874976e-09 2.392970035195590692e-09 3.194369004353707624e+03 3.104740290754860780e+03 -9.499192762143080699e+02
1.199999999999999992e-10 9.801086509314962598e-09 3.891744586803683143e-09 5.833266025286850555e-09 -1.433200248344707461e+03 -6.362691646301561832e+01 2.517456321506231234e+03
1.199999999999999992e-10 7.244633404368627311e-09 4.642342692221154177e-09 3.461355544712915010e-09 -1.678642081753619095e+03 3.070221531414321362e+03 -1.877584130830356344e+03
1.199999999999999992e-10 5.505920603833337075e-09 1.482151411224481840e-09 5.518475559465097272e-09 -1.849789646562811868e+03 1.416266412940557530e+03 3.884173054641212275e+02
1.199999999999999992e-10 9.328413271289284169e-09 1.752641192945894342e-09 8.128750733861567601e-09 -7.921782592439631117e+02 -2.667064236394650379e+03 -1.136793627811044587e+02
ITEM: TIMESTEP
500
ITEM: NUMBER OF ATOMS
10
ITEM: BOX BOUNDS f f f
0 1e-08
0 1e-08
0 1e-08
ITEM: ATOMS radius x y z v_x v_y v_z
1.199999999999999992e-10 3.576297191528919947e-09 4.546148350229593030e-09 4.131037254020567809e-09 -2.124205556569938381e+03 9.012573894954357456e+02 4.222217952826036708e+03
1.199999999999999992e-10 8.426139429817958811e-09 5.075110137714004141e-09 5.094659065621202440e-09 6.574946461989367208e+02 1.139751947247370708e+03 -1.289766622740618686e+03
1.199999999999999992e-10 5.705374456558429584e-09 4.924482491997571763e-09 7.055390483276790840e-09 -2.576204525776804530e+03 3.394359720891077359e+01 -2.877221742818236180e+03
1.199999999999999992e-10 9.672194693808046594e-09 3.241031340912230597e-09 9.254948775728659057e-09 -2.002818568946756841e+02 5.049493358804492118e+02 -1.255928845531949491e+03
1.199999999999999992e-10 3.960615326018389281e-09 8.872939138045146458e-09 5.842958351448363211e-09 -7.509362521621310407e+02 -8.509593329701187940e+02 -5.484728529235640053e+02
1.199999999999999992e-10 9.408434582232974559e-09 4.698440961910728378e-09 2.308255346947611532e-09 2.547487835391015949e+02 -2.711439927492860534e+03 -1.990726257019003924e+03
1.199999999999999992e-10 9.586755407413007229e-09 3.790067637502576042e-09 6.016987364807147048e-09 -1.884890913834810135e+03 -1.289379035146709157e+03 2.024255859898282324e+03
1.199999999999999992e-10 7.157493601094763793e-09 4.837893297966420250e-09 3.283521966898904988e-09 -1.347372625605383973e+03 1.611191881312717442e+03 -4.389350452822772013e+02
1.199999999999999992e-10 5.338937659869715424e-09 1.570579392245783928e-09 5.499097673923303920e-09 -1.732154273463218487e+03 -4.716513020485311358e+01 4.323366015226901027e+02
1.199999999999999992e-10 9.219541536911353528e-09 1.618303370791447448e-09 8.166225491948305858e-09 -1.460269158143263667e+03 -2.090050100049938465e+03 6.310065805771201894e+02
ITEM: TIMESTEP
600
ITEM: NUMBER OF ATOMS
10
ITEM: BOX BOUNDS f f f
0 1e-08
0 1e-08
0 1e-08
ITEM: ATOMS radius x y z v_x v_y v_z
1.199999999999999992e-10 3.298233637098085570e-09 4.553125976806079727e-09 4.302750260147043943e-09 -1.796700633198543073e+03 -1.178662996514168753e+03 1.473021664718246484e+03
1.199999999999999992e-10 8.530468753870545824e-09 4.905160576876727457e-09 5.199190366040710655e-09 1.475187455896677420e+03 -2.112225629553605813e+03 1.563314670978744289e+03
1.199999999999999992e-10 5.433875592277052302e-09 5.025860851383113932e-09 6.971645275860723773e-09 -2.975354169980307233e+03 9.473998168319317301e+02 -6.548068672609765599e+02
1.199999999999999992e-10 9.641847920433883107e-09 3.320483425739661544e-09 9.158843369345471526e-09 -1.251175836351941655e+02 1.012000522908751577e+03 -2.405591472501860721e+02
1.199999999999999992e-10 3.855871028002293143e-09 8.745119956981987609e-09 5.808956574866411067e-09 -1.107695709689646947e+03 -4.962618728355498661e+02 7.279173139112459694e+02
1.199999999999999992e-10 9.329972275497759752e-09 4.649959748898297024e-09 2.084379327740224774e-09 -5.076895886240615710e+02 7.047795023942256876e+02 -2.518107480580672018e+03
1.199999999999999992e-10 9.420081745633180931e-09 3.753969950578665363e-09 6.185600225512617361e-09 -1.747076945991484990e+03 -2.854283364752715215e+02 2.354593375052776537e+03
1.199999999999999992e-10 7.071782822249595747e-09 4.867577176765200725e-09 3.043175345582530444e-09 2.226673988708805041e+02 -5.038782309897140408e+02 -2.901289906254689868e+03
1.199999999999999992e-10 5.329670927558234867e-09 1.572251888146476810e-09 5.340991082914357096e-09 7.288744829221632244e+02 6.087375440703402774e+02 -8.783499225715974035e+02
1.199999999999999992e-10 8.848860598947805343e-09 1.433101525905225531e-09 8.093462213009408809e-09 -5.188519793834931079e+03 -2.385539902765729039e+03 -1.328595688934788996e+03
ITEM: TIMESTEP
700
ITEM: NUMBER OF ATOMS
10
ITEM: BOX BOUNDS f f f
0 1e-08
0 1e-08
0 1e-08
ITEM: ATOMS radius x y z v_x v_y v_z
1.199999999999999992e-10 3.283981383308908992e-09 4.627274962386510010e-09 4.242295111282939402e-09 -6.955470569443389195e+01 -4.441793113064662180e+02 -5.446234536731315075e+02
1.199999999999999992e-10 8.619655340688436692e-09 4.734444323403140415e-09 5.342552928496057791e-09 1.062666332813219014e+03 -1.802240054657159362e+03 1.012767724476817875e+03
1.199999999999999992e-10 5.265692763848243696e-09 5.226227304446694281e-09 6.975663470093539063e-09 -1.431803056114486026e+03 1.986984399446093448e+03 -5.705710248656840804e+02
1.199999999999999992e-10 9.786881233337943347e-09 3.340469196582030046e-09 9.265000643006747051e-09 1.563261705487004519e+03 7.605039747410960445e+02 1.140804693804243016e+03
1.199999999999999992e-10 3.834912293327881206e-09 8.888973346847930665e-09 5.998145447599268135e-09 -1.798815263677908547e+02 3.518980152435795389e+03 2.654588596388551196e+03
1.199999999999999992e-10 9.156160040022178492e-09 4.694789659168286244e-09 1.930069692533021629e-09 -2.828615918096504174e+03 9.777144501937552832e+02 -8.320021467506467161e+02
1.199999999999999992e-10 9.305169898494631377e-09 3.612404392783444117e-09 6.316669839302576290e-09 -1.146526123432525992e+03 -1.317466518370184303e+03 -1.150618574291254390e+03
1.199999999999999992e-10 7.055720774261261074e-09 4.878472662572457950e-09 2.867737533176934611e-09 -1.821254214880330437e+03 7.940823806140697343e+02 -4.176829570704512662e+02
1.199999999999999992e-10 5.323496008929882108e-09 1.693170095702496748e-09 5.353328535149055412e-09 -3.679073473427445720e+02 7.723927304928527064e+02 -6.154183068826914678e+02
1.199999999999999992e-10 8.615535838949081389e-09 1.357750225153904666e-09 7.981991055742839938e-09 -1.279843399467211611e+03 -6.259161403459836492e+02 1.801055836747150352e+03
ITEM: TIMESTEP
800
ITEM: NUMBER OF ATOMS
10
ITEM: BOX BOUNDS f f f
0 1e-08
0 1e-08
0 1e-08
ITEM: ATOMS radius x y z v_x v_y v_z
1.199999999999999992e-10 3.463217103742124007e-09 4.769748212650537818e-09 4.312149199892221258e-09 3.333441775751674413e+03 1.501764372954673490e+03 1.116528481418684578e+03
1.199999999999999992e-10 8.762757068672103408e-09 4.804459889059567503e-09 5.381983256189453650e-09 -4.312013680876867738e+02 -2.422461142112831283e+02 -1.513002808074787936e+03
1.199999999999999992e-10 5.071942313753541632e-09 5.325515652113670103e-09 7.037390938188059507e-09 -1.455558605434478068e+03 1.270642871753565714e+03 3.364420502518625199e+03
1.199999999999999992e-10 9.861084685106272561e-09 3.442106391349206505e-09 9.400673886666048256e-09 -1.184247051491157208e+03 1.007824247927961665e+03 2.062796794326344241e+02
1.199999999999999992e-10 3.881372526131495590e-09 9.044445062950085108e-09 5.983501083080644891e-09 1.570318800750319042e+03 8.523235799500364465e+02 -9.987961113312866246e+02
1.199999999999999992e-10 9.025527265740404892e-09 4.839822830450787724e-09 1.747085077735802159e-09 -1.127870227812526309e+03 2.215178151203023390e+03 -2.007398837662040478e+03
1.199999999999999992e-10 9.277459893200613728e-09 3.457722524286265871e-09 6.268777265038428800e-09 2.502920051438899236e+02 -1.235159080972083757e+03 1.500047005799099907e+03
1.199999999999999992e-10 7.067746749017777119e-09 4.952969419403149081e-09 2.876358472632757267e-09 2.152382840423478228e+03 7.497541678622285417e+02 8.301876712986558005e+02
1.199999999999999992e-10 5.229291979177557450e-09 1.799084679508999152e-09 5.428693591147543800e-09 3.457322097670151493e+02 2.168156372535983337e+03 1.050205679636685772e+03
1.199999999999999992e-10 8.391082855608773849e-09 1.222863767327120012e-09 8.136052755831089260e-09 -3.210758695231837009e+03 -7.426095157906079294e+02 9.206115236576754342e+02
ITEM: TIMESTEP
900
ITEM: NUMBER OF ATOMS
10
ITEM: BOX BOUNDS f f f
0 1e-08
0 1e-08
0 1e-08
ITEM: ATOMS radius x y z v_x v_y v_z
1.199999999999999992e-10 3.816224708584709247e-09 4.623695224805671902e-09 4.470869206810518412e-09 2.876979951415840333e+03 -1.691054744771540300e+03 8.806591517075554520e+02
1.199999999999999992e-10 8.824061056346317172e-09 4.709095061484395172e-09 5.319751500716818197e-09 5.589557172374785523e+02 -1.457109885725319145e+03 -4.323004815932267775e+02
1.199999999999999992e-10 5.051320864301318083e-09 5.323709255756329391e-09 7.103898994242755456e-09 -1.414430060427627041e+02 -1.666933427484645335e+03 -6.411187865656798976e+02
1.199999999999999992e-10 9.744419215289557531e-09 3.455893060243089076e-09 9.440397398218542256e-09 -2.385990992222640671e+03 -1.778945040030374003e+03 2.576927800763379310e+03
1.199999999999999992e-10 3.940731256997186028e-09 8.998798162215976390e-09 5.932228537986015393e-09 6.980614873763755668e+02 -1.215408983285341037e+03 -1.774148823990635719e+02
1.199999999999999992e-10 8.967917175188315229e-09 4.919953334286628502e-09 1.656015712320701275e-09 -2.402979336455804514e+03 2.123583480066978666e+02 -8.424878339521002317e+02
1.199999999999999992e-10 9.278848444156555017e-09 3.241291621653985542e-09 6.284532717868790792e-09 7.467925700627606602e+02 -2.779801599025265659e+03 -5.251607417998367282e+02
1.199999999999999992e-10 7.297810870025620263e-09 4.973915201030053114e-09 2.957318663600806238e-09 1.347140128789962318e+03 6.895023411481670337e+02 2.301787245558399263e+03
1.199999999999999992e-10 5.348352656543044202e-09 1.714384441206219954e-09 5.618492916984259838e-09 1.386780502804998150e+03 -3.414903165338883809e+03 9.856457442174928474e+02
1.199999999999999992e-10 8.277650184506247772e-09 1.187637872618468838e-09 8.230347550727395191e-09 2.992976212496846529e+02 1.432026121206657479e+02 -5.268273027346250501e+02
ITEM: TIMESTEP
1000
ITEM: NUMBER OF ATOMS
10
ITEM: BOX BOUNDS f f f
0 1e-08
0 1e-08
0 1e-08
ITEM: ATOMS radius x y z v_x v_y v_z
1.199999999999999992e-10 3.907956829336960930e-09 4.523234998353376061e-09 4.558270369084693231e-09 -1.045097991434625328e+03 -1.403559388229942442e+03 -9.125812563395944608e+02
1.199999999999999992e-10 8.773596586750795146e-09 4.560087410049911622e-09 5.273277954936534880e-09 -4.818857983434801326e+02 7.849830132460169807e+00 -4.341307897481868849e+00
1.199999999999999992e-10 5.038393385281252258e-09 5.200719085580964270e-09 7.059303030528938024e-09 -2.410012161470800720e+02 -9.353780333244895928e+02 -8.497409171437284385e+02
1.199999999999999992e-10 9.521353556902837825e-09 3.286504298047965320e-09 9.531843405835067994e-09 -2.255315709219834844e+03 1.361671051221397306e+02 8.080329634152276412e+02
1.199999999999999992e-10 3.958558596062100810e-09 8.920299407964448261e-09 5.971789585257544984e-09 -1.412772923737706833e+03 -7.198955040136095249e+02 9.377698737084492677e+02
1.199999999999999992e-10 8.777661216797385093e-09 4.911281986644658472e-09 1.670427808973481428e-09 -2.650941472982709001e+03 5.906169095208624640e+02 -1.269954765100469785e+03
1.199999999999999992e-10 9.558638765357097353e-09 3.035269926859293548e-09 6.219754131133427841e-09 2.703708609162905304e+03 -1.186149428314254010e+03 -1.025887219730654806e+03
1.199999999999999992e-10 7.294824071499096920e-09 4.954386215038158342e-09 3.068334505279304565e-09 -2.562093824871521974e+02 -3.060977418489871411e+02 1.660308944768437868e+03
1.199999999999999992e-10 5.402874372163932404e-09 1.409255163234358189e-09 5.673850081525206640e-09 -3.304437284852006087e+02 -2.683756619066694384e+03 1.558855359959794100e+02
1.199999999999999992e-10 8.259185288269469711e-09 1.101002823919465643e-09 8.162785481750960847e-09 5.408760742578858753e+02 -1.053395954217387725e+03 -1.451998724509720432e+03
ITEM: TIMESTEP
1100
ITEM: NUMBER OF ATOMS
10
ITEM: BOX BOUNDS f f f
0 1e-08
0 1e-08
0 1e-08
ITEM: ATOMS radius x y z v_x v_y v_z
1.199999999999999992e-10 3.858924220056632434e-09 4.499716065598513972e-09 4.385047245179114692e-09 -1.242880952534496373e+03 2.897330355253827179e+02 -6.590142789678611734e+02
1.199999999999999992e-10 8.832812500138088078e-09 4.565218355612267397e-09 5.165441051823572832e-09 2.537366244131419990e+03 1.570880364538836602e+03 -2.257359236044927911e+03
1.199999999999999992e-10 4.903225033256385307e-09 5.199100819394753909e-09 7.101016331169951787e-09 -1.193438187015009134e+03 1.740272930544869951e+03 8.223330833354218612e+02
1.199999999999999992e-10 9.336450823784425217e-09 3.238340868169863882e-09 9.677768776822000328e-09 -1.503225154453189589e+03 -5.234064092214777020e+02 2.066287111381142495e+03
1.199999999999999992e-10 3.941898872010686993e-09 8.874075903874679387e-09 6.034171084593065016e-09 -3.469195433015182175e+02 -9.974694091122375994e+02 9.218592524821901861e+02
1.199999999999999992e-10 8.641362055550083980e-09 4.996497509358672122e-09 1.601062800045842054e-09 5.638214601528978847e+02 2.583489503376738867e+03 5.399285772820995817e+02
1.199999999999999992e-10 9.855833045274874280e-09 2.743645183448363944e-09 6.176322372916278230e-09 2.721749447093620802e+03 -3.322043328966919944e+03 -7.801577628123661157e+01
1.199999999999999992e-10 7.262675695610248714e-09 5.068527684944433313e-09 3.311216745323903190e-09 2.701349294921599267e+02 -2.724968214212027533e+02 1.302472697161387487e+03
1.199999999999999992e-10 5.459024309560516048e-09 1.128040350868730590e-09 5.796628495455793563e-09 3.371614191546225925e+01 -1.427235028549406934e+03 2.454169448825289692e+03
1.199999999999999992e-10 8.469341291502020400e-09 9.170223936034963267e-10 7.938934406610327592e-09 1.215935337241068282e+03 -3.019497919131814342e+03 -1.526238524121694809e+03
ITEM: TIMESTEP
1200
ITEM: NUMBER OF ATOMS
10
ITEM: BOX BOUNDS f f f
0 1e-08
0 1e-08
0 1e-08
ITEM: ATOMS radius x y z v_x v_y v_z
1.199999999999999992e-10 3.801915052449016385e-09 4.531344144411157363e-09 4.379323359411258548e-09 1.595643793129247570e+03 -1.042018829505199392e+03 1.151955810300938765e+03
1.199999999999999992e-10 8.928125661457167946e-09 4.760596173534261909e-09 5.078811431487672050e-09 6.156131498756559495e+02 2.801669491737523458e+03 -7.631577478601652729e+02
1.199999999999999992e-10 4.770095326073645753e-09 5.330388223302907129e-09 7.094750585755804180e-09 6.690872510530539330e+02 6.450588423100579121e+02 1.897662418473474418e+03
1.199999999999999992e-10 9.232979810983783149e-09 3.357125478536806929e-09 9.798999108223449453e-09 -1.249581258513264174e+03 7.120523514043266005e+02 1.995247697734553185e+03
1.199999999999999992e-10 4.018441498665191977e-09 8.726780517064246845e-09 6.061277892362173772e-09 8.229662528079096546e+02 -2.369941836896894984e+03 -5.166120512996074012e+02
1.199999999999999992e-10 8.918481255152272686e-09 5.138836914334276377e-09 1.570963677301074038e-09 3.313628428289852309e+03 1.950942069063813051e+03 -5.971178408445124433e+02
1.199999999999999992e-10 9.730582143239369700e-09 2.612391873755252504e-09 6.096627472738426052e-09 -1.512321634676228314e+03 -8.271029208110336413e+02 -2.057814003618275819e+03
1.199999999999999992e-10 7.125946438073195310e-09 5.076198529335033821e-09 3.530715440640104141e-09 -2.009664521746864693e+03 -2.284443397452675072e+03 3.346141110869294607e+03
1.199999999999999992e-10 5.619601887678135303e-09 1.075167613774410063e-09 6.035322438899521717e-09 2.437149333082174508e+03 1.239381405966983891e+02 2.271479259861497667e+03
1.199999999999999992e-10 8.523087968809045244e-09 7.817127557891940507e-10 7.824997530511430185e-09 -1.894468517251751223e+02 7.005101827315099854e+02 -9.411985478547023831e+01
ITEM: TIMESTEP
1300
ITEM: NUMBER OF ATOMS
10
ITEM: BOX BOUNDS f f f
0 1e-08
0 1e-08
0 1e-08
ITEM: ATOMS radius x y z v_x v_y v_z
1.199999999999999992e-10 3.806900107216268436e-09 4.396375875418866477e-09 4.479629893668873471e-09 -3.459666168583206627e+02 -1.865833042431613876e+03 1.168535759287563678e+03
1.199999999999999992e-10 9.033851274666337031e-09 4.950475176097826833e-09 5.190178635380133931e-09 4.006181924723645693e+02 2.086243054082222898e+03 1.354950585270870761e+03
1.199999999999999992e-10 4.836655990391312935e-09 5.378510995639629255e-09 7.185308044249903680e-09 1.514833639843151559e+03 3.605617218985964882e+02 -1.502149350846786319e+03
1.199999999999999992e-10 9.177575217972561572e-09 3.254812526842478465e-09 9.927751088137644070e-09 3.261600520685731794e+02 -1.081051717128509154e+03 -6.415769655134862433e+02
1.199999999999999992e-10 4.068229746920689522e-09 8.663700700958225451e-09 5.897001159191408620e-09 2.475087571100876630e+03 8.983400052647132270e+02 -2.623060213764265427e+03
1.199999999999999992e-10 9.187225339487984971e-09 5.144549322420361754e-09 1.583332132981280035e-09 6.986994465541760064e+02 -3.922185636140080192e+02 -3.749516972786130395e+02
1.199999999999999992e-10 9.569819560341508184e-09 2.407860742831127374e-09 5.993999664084885372e-09 2.270042538026771695e+01 -3.536673687365316709e+03 -9.283500731774654469e+02
1.199999999999999992e-10 6.926578216148629503e-09 4.839960247952537299e-09 3.677394196357058481e-09 -1.654141261176435819e+03 -2.238890074120906775e+03 -2.238425314217262212e+02
1.199999999999999992e-10 5.681290700335223782e-09 1.083433246905616851e-09 6.131434016226711732e-09 5.616362157267873272e+02 -1.368173307243323222e+01 1.494332904582203696e+02
1.199999999999999992e-10 8.520386768993538810e-09 8.526321181906511998e-10 7.775395983093110516e-09 8.966964214995950897e+02 5.347640754767748206e+01 -1.180211498073995244e+03
ITEM: TIMESTEP
1400
ITEM: NUMBER OF ATOMS
10
ITEM: BOX BOUNDS f f f
0 1e-08
0 1e-08
0 1e-08
ITEM: ATOMS radius x y z v_x v_y v_z
1.199999999999999992e-10 3.874345207018371574e-09 4.348747239368305751e-09 4.569401452262012246e-09 3.412057520965928461e+02 -1.173011580269991782e+03 -7.756562551728983408e+02
1.199999999999999992e-10 9.126765550296681704e-09 5.097094290357015812e-09 5.229039970862697307e-09 8.090274237616572464e+02 2.394698004775367735e+03 -3.965136993327942037e+02
1.199999999999999992e-10 4.780563276299871414e-09 5.506666301837970950e-09 7.129742770408303345e-09 6.409538661475608023e+01 2.837476835086745268e+03 1.373604288011954850e+03
1.199999999999999992e-10 8.999624431535558315e-09 3.140640247766597147e-09 9.780427310132373006e-09 -3.077373051207699518e+03 -1.164589086095061930e+03 -1.030380678264990365e+03
1.199999999999999992e-10 4.327517183878056198e-09 8.751474058675170641e-09 5.675522837350251912e-09 1.684833817432194792e+03 2.287809469915800037e+03 -1.355861811262034735e+03
1.199999999999999992e-10 9.226552252850845767e-09 5.099450394592134203e-09 1.591688080872162321e-09 5.406230378520128852e+02 -1.796412015097523181e+03 8.893780719568972017e+02
1.199999999999999992e-10 9.604885811489307733e-09 2.330561697390108671e-09 5.994493351305857501e-09 6.714720391348071189e+02 5.555969516968875723e+02 2.062884608888214188e+02
1.199999999999999992e-10 6.871084114567100036e-09 4.790358257523954046e-09 3.643927773728584069e-09 1.991252507043770265e+03 1.208796648900669879e+03 -1.339664027011496955e+03
1.199999999999999992e-10 5.855158504321978387e-09 1.074417589400818193e-09 6.123892061931210418e-09 2.269576514978690284e+03 -5.537959891583889203e+02 9.419705006606549205e+02
1.199999999999999992e-10 8.561764414384121780e-09 8.823594298285809684e-10 7.789070956640511411e-09 -1.088690193820058312e+02 -1.039847413386882408e+03 -1.048349918443134811e+03
ITEM: TIMESTEP
1500
ITEM: NUMBER OF ATOMS
10
ITEM: BOX BOUNDS f f f
0 1e-08
0 1e-08
0 1e-08
ITEM: ATOMS radius x y z v_x v_y v_z
1.199999999999999992e-10 3.749837008521210824e-09 4.102296726482578952e-09 4.530520374265313794e-09 -2.637146876519850593e+03 -1.463173180963132836e+03 -1.345171034331811825e+03
1.199999999999999992e-10 9.186805738284293497e-09 5.265413475515552093e-09 5.024619488194720466e-09 3.530059284763251526e+02 2.921628087036582201e+03 -2.946123761931720765e+03
1.199999999999999992e-10 4.855374053783450920e-09 5.809568792388072512e-09 7.237261234048641078e-09 2.854167920044968696e+02 1.863806498853105495e+03 -1.511200484474545647e+02
1.199999999999999992e-10 8.937710250242064294e-09 3.085046674018457132e-09 9.755080809988544659e-09 -3.839719129634232218e+02 -1.659076932110689995e+03 1.014187221318280876e+03
1.199999999999999992e-10 4.367027080145283711e-09 8.814995057230158191e-09 5.405738341285550379e-09 -1.467842665391051469e+02 -8.406602287679445453e+02 -2.615755393909198574e+03
1.199999999999999992e-10 9.262891167452115477e-09 4.863401524104359901e-09 1.567343606338450732e-09 -5.673166077337328943e+02 -1.875358099737043176e+03 -2.089655575338482777e+03
1.199999999999999992e-10 9.576266377554685429e-09 2.207759018813527297e-09 5.978418108294210244e-09 -1.009539648650505001e+03 3.487391998268621478e+02 5.434131711852529634e+02
1.199999999999999992e-10 6.877367152685990821e-09 4.956011769743261291e-09 3.429637556470063445e-09 1.143637390916594995e+03 2.671628876140550801e+03 5.322053461748612335e+02
1.199999999999999992e-10 5.999753178525120618e-09 1.158219582507005299e-09 6.053769900900380557e-09 1.709776448996983845e+03 -6.168805289607786335e+02 -1.034617627802821289e+03
1.199999999999999992e-10 8.369157638405100146e-09 6.553213374572167502e-10 7.668363163514098360e-09 -3.535267464711319462e+03 -1.389382437865538805e+03 -9.988247977962118966e+02
ITEM: TIMESTEP
1600
ITEM: NUMBER OF ATOMS
10
ITEM: BOX BOUNDS f f f
0 1e-08
0 1e-08
0 1e-08
ITEM: ATOMS radius x y z v_x v_y v_z
1.199999999999999992e-10 3.479141718562859560e-09 4.188973272649475786e-09 4.436951089842009085e-09 -1.635763241486684819e+03 9.099204405513160054e+02 -1.053054266523036631e+03
1.199999999999999992e-10 9.268695340099192168e-09 5.455085303628515210e-09 4.840312481804963199e-09 -1.921841615910627468e+02 6.736332703398129524e+02 -3.203423422029018184e+02
1.199999999999999992e-10 4.845831376809278535e-09 5.927549418032103584e-09 7.268129154575106958e-09 -1.617311639327851253e+03 -2.942100900343084504e+02 1.478834207496361159e+03
1.199999999999999992e-10 8.959488018394461367e-09 2.811937446335037459e-09 9.918434543869370997e-09 1.040603581158371298e+03 -5.631717291343688885e+02 2.718439092975939957e+02
1.199999999999999992e-10 4.431008131574621560e-09 8.614189423271825965e-09 5.278612095561760853e-09 1.844154078623256510e+03 -1.691848835932213660e+03 3.910510417977087627e+02
1.199999999999999992e-10 9.200453707197590038e-09 4.591053051692184805e-09 1.658039162761757310e-09 -7.931057014416509219e+02 -2.526620444288095769e+03 1.086678362074686220e+03
1.199999999999999992e-10 9.512494700287082902e-09 2.396310093831364276e-09 5.989905945871735950e-09 4.892234389536404251e+02 4.413504389286266814e+03 3.643169235684075602e+02
1.199999999999999992e-10 6.732742570423760625e-09 4.974015954212287097e-09 3.565750843018443717e-09 -2.140087038929060327e+03 -3.334517922233481386e+03 7.393304524689662003e+02
1.199999999999999992e-10 5.996986678262006767e-09 1.118276895856530337e-09 6.113879908931218746e-09 -6.617937671722596633e+02 4.573120878142410106e+02 5.616914015163745262e+02
1.199999999999999992e-10 8.072913078664008662e-09 5.488028841575086223e-10 7.540768559671704425e-09 -1.833784689195349983e+03 -1.984202665437692758e+03 -1.737285399844620088e+03
ITEM: TIMESTEP
1700
ITEM: NUMBER OF ATOMS
10
ITEM: BOX BOUNDS f f f
0 1e-08
0 1e-08
0 1e-08
ITEM: ATOMS radius x y z v_x v_y v_z
1.199999999999999992e-10 3.358667838068691094e-09 4.228208622266565740e-09 4.356896545647042941e-09 -2.053865728294433211e+03 7.383778813865441180e+02 -5.516539391564094785e+02
1.199999999999999992e-10 9.313064153420683180e-09 5.443481226960444813e-09 4.853757028979102582e-09 -3.442296036497208434e+02 -7.753189164537612896e+02 -2.229905874363684575e+02
1.199999999999999992e-10 4.796305118028435410e-09 5.727666055685227564e-09 7.346799758022074742e-09 1.727246724287931784e+03 -1.127507687488179954e+03 1.854086622949301386e+02
1.199999999999999992e-10 9.205902698238118796e-09 2.845137969833362619e-09 9.912474386878222549e-09 2.855329809552025836e+03 8.019910008822913596e+02 -1.082906878619838153e+03
1.199999999999999992e-10 4.703634984262337697e-09 8.523405245435823113e-09 5.309023145646492711e-09 1.756328160166336147e+03 2.548264454248036941e+02 -1.541359065396354026e+03
1.199999999999999992e-10 9.323593639146750109e-09 4.320820026343098520e-09 1.724902584088654532e-09 1.242352984527230092e+03 -3.026835180355148623e+03 4.232908834876579363e+01
1.199999999999999992e-10 9.525787549544360472e-09 2.739848697531100588e-09 6.090227984618534481e-09 1.906869539935443754e+03 1.956059771717424155e+03 1.636876104507189893e+03
1.199999999999999992e-10 6.530930235166639070e-09 4.743070413756435411e-09 3.685923464006316258e-09 -2.213457136768695818e+03 -8.908519049708693274e+02 1.007855188444400710e+03
1.199999999999999992e-10 5.907327745843271648e-09 1.130673453881073375e-09 6.089949322980764690e-09 -1.489474099215439082e+03 -3.422150651684621607e+02 -5.733611057195105332e+00
1.199999999999999992e-10 7.827428082875699040e-09 3.874198186209853494e-10 7.549185615489094187e-09 -1.075471283919948064e+03 -2.505134194627504257e+03 1.337066631566234719e+03
ITEM: TIMESTEP
1800
ITEM: NUMBER OF ATOMS
10
ITEM: BOX BOUNDS f f f
0 1e-08
0 1e-08
0 1e-08
ITEM: ATOMS radius x y z v_x v_y v_z
1.199999999999999992e-10 3.263032984535057506e-09 4.342264210740432314e-09 4.429107570795060726e-09 5.011586569534767364e+02 2.206885844840131540e+03 4.047813223046018152e+02
1.199999999999999992e-10 9.054559832534852465e-09 5.535067950612004221e-09 4.865071519543968071e-09 -4.161609451753943176e+03 8.862276424279234561e+02 5.001179658627416984e+02
1.199999999999999992e-10 4.839382724095118520e-09 5.709289379013382773e-09 7.299717919359371710e-09 9.018002862492025997e+02 -8.193857685274849700e+00 -5.248111637670231175e+02
1.199999999999999992e-10 9.468991205250774572e-09 2.959043893561094747e-09 9.856947657635402356e-09 2.749959686539754330e+03 3.015253024249786904e+03 -1.047981801625884600e+03
1.199999999999999992e-10 4.801049974302735623e-09 8.609867631594322135e-09 5.130527223296748274e-09 6.334615236800640332e+02 -1.279014299103760777e+03 -2.688183054843994796e+03
1.199999999999999992e-10 9.255348119253332800e-09 4.208134056078148860e-09 1.727907450763023136e-09 -8.977913256806002664e+02 -6.180956285436380995e+02 -2.929135009643972580e+02
1.199999999999999992e-10 9.671694944186298430e-09 2.868716164859729372e-09 6.147294300458083423e-09 1.508012894728011361e+03 5.533094174587897669e+02 -1.342100669431686697e+02
1.199999999999999992e-10 6.338268197949417315e-09 4.717594179732430698e-09 3.824223934983892836e-09 -1.986755727013943897e+03 -5.904501796290916218e+02 2.525780303640570310e+03
1.199999999999999992e-10 5.857822334304002066e-09 1.216756258764471474e-09 6.140583479288210358e-09 -5.948149771990056252e+02 1.496857531281971205e+02 1.407978944743907732e+03
1.199999999999999992e-10 7.780129419927514573e-09 1.599844735602478425e-10 7.614789733186120389e-09 -2.425021311970718898e+02 -1.999646275649128938e+03 3.993220613970314048e+01
ITEM: TIMESTEP
1900
ITEM: NUMBER OF ATOMS
10
ITEM: BOX BOUNDS f f f
0 1e-08
0 1e-08
0 1e-08
ITEM: ATOMS radius x y z v_x v_y v_z
1.199999999999999992e-10 3.209010643617129114e-09 4.585225020001903798e-09 4.499657327831870328e-09 -1.687857628268233839e+03 2.655780512640852976e+03 9.156420295715063276e+02
1.199999999999999992e-10 8.859500148976046259e-09 5.624872739435575005e-09 4.922548476620647054e-09 2.231385357648254626e+02 4.104987748888177634e+02 7.087549944313784636e+02
1.199999999999999992e-10 4.929682249997534768e-09 5.695141268949420975e-09 7.331512518670148041e-09 5.896999791000101823e+02 2.111485474344481190e+02 -1.057028015934442692e+03
1.199999999999999992e-10 9.764706302414172051e-09 3.131287535518128699e-09 9.827633139594762807e-09 1.688137994709755958e+03 -5.652615231047011548e+02 -9.091281669470912163e+01
1.199999999999999992e-10 4.718548364253778513e-09 8.527395116701740471e-09 4.954694588293285640e-09 1.419731917398400583e+03 -5.662716246217009939e+02 -2.147882514056921082e+03
1.199999999999999992e-10 9.253447588038616574e-09 4.083687614210704066e-09 1.710245443506299624e-09 9.065698881420960333e+02 -5.296662898883962498e+02 -1.725226846661860918e+03
1.199999999999999992e-10 9.637542545635281183e-09 2.988682676064904139e-09 6.137648762010484455e-09 -9.969084562060309054e+02 1.735147903458226438e+03 5.872878524863540406e+01
1.199999999999999992e-10 6.251523670211428552e-09 4.710252275579225206e-09 3.977389685087419959e-09 -9.626421423152776242e+02 -1.977076260196795829e+03 9.805991421464257201e+02
1.199999999999999992e-10 5.851852014363431364e-09 1.244261910066462961e-09 6.142831000219521205e-09 6.737504674319503692e+02 -5.284285267659970486e+02 -1.177452128471067851e+02
1.199999999999999992e-10 7.746887093846838570e-09 1.671585893286662132e-11 7.641156514655081808e-09 -1.563864885042814876e+02 -1.345779057532267871e+03 -7.281340036384028735e+02
ITEM: TIMESTEP
2000
ITEM: NUMBER OF ATOMS
10
ITEM: BOX BOUNDS f f f
0 1e-08
0 1e-08
0 1e-08
ITEM: ATOMS radius x y z v_x v_y v_z
1.199999999999999992e-10 3.135256902601241522e-09 4.694136452337256920e-09 4.582994003637780837e-09 -5.521620357249196331e+01 1.070735260623972636e+03 4.675670469560739093e+02
1.199999999999999992e-10 8.860807941861644472e-09 5.549988119657226365e-09 4.990389237272642931e-09 4.132162811811876963e+02 -2.033509303135334221e+03 1.372159818519137161e+03
1.199999999999999992e-10 4.851785612672831841e-09 5.735661198762489405e-09 7.240192510708496542e-09 -9.663495219871581412e+02 2.248496775979985159e+03 6.600133904552046715e+02
1.199999999999999992e-10 9.814927223447080156e-09 2.970507111382244096e-09 9.745301193370239014e-09 -3.996165944144524360e+02 -3.163551892641160975e+03 -6.178385496796929601e+02
1.199999999999999992e-10 4.882050449981408132e-09 8.379125106456765360e-09 4.864551154162414277e-09 3.022924139850756546e+03 -1.059749713684054541e+03 -1.384855061605026776e+03
1.199999999999999992e-10 9.332901911412912094e-09 4.149914047591307795e-09 1.626342274413427918e-09 1.023443931303717363e+03 1.856666654848672806e+03 -1.171791151582162001e+03
1.199999999999999992e-10 9.592255019975018181e-09 3.136022603673675874e-09 6.106285307369500313e-09 3.503948735565007269e+02 2.665830611345835450e+02 3.928775291427566572e+02
1.199999999999999992e-10 6.075941344711330204e-09 4.540038822115012406e-09 4.118303392640333364e-09 -3.794543541656287289e+03 -2.600064296435225060e+03 1.112419793868470379e+03
1.199999999999999992e-10 5.870552388527517444e-09 1.227811719491073336e-09 6.267926176964699028e-09 2.259839449344778131e+03 -6.610930553601282611e+01 2.574613027024553958e+03
1.199999999999999992e-10 7.861582353380359168e-09 2.369206933020908579e-10 7.547841698501580506e-09 2.222049235731202316e+03 1.034655640889095821e+03 -2.954921711470666196e+03
ITEM: TIMESTEP
2100
ITEM: NUMBER OF ATOMS
10
ITEM: BOX BOUNDS f f f
0 1e-08
0 1e-08
0 1e-08
ITEM: ATOMS radius x y z v_x v_y v_z
1.199999999999999992e-10 3.147516826453081842e-09 4.782667987931119471e-09 4.559772494434957382e-09 6.399919059997569093e+02 -4.571555868474761155e+02 -5.760549984595600108e+02
1.199999999999999992e-10 8.857375161652623133e-09 5.470806683816099061e-09 4.985783919775350372e-09 -2.931656230567487000e+02 9.934287756496399879e+02 -1.355806099590263784e+03
1.199999999999999992e-10 4.810813876701658431e-09 5.839645266698041006e-09 7.308021149902213307e-09 2.369153367578103371e+03 5.848462299974826237e+02 -2.345865891873353348e+02
1.199999999999999992e-10 9.757258653864806047e-09 2.537018687299159915e-09 9.766936109754244664e-09 -2.989267040427860138e+02 -2.188639874760383009e+03 1.550384637319282319e+03
1.199999999999999992e-10 4.977146951112951850e-09 8.326078461686295796e-09 4.830522375049816038e-09 1.955815634378262757e+02 4.688875280650676132e+02 5.307454998361820344e+02
1.199999999999999992e-10 9.360671097654376797e-09 4.259432725926360068e-09 1.562725705463448448e-09 -6.002930712786974254e+02 4.663444069420406208e+02 4.389026750477300993e+02
1.199999999999999992e-10 9.496330868123465891e-09 3.155046487564905652e-09 6.194702789210866326e-09 -9.500142770444612097e+02 6.134133689728768104e+02 1.708683552246174941e+03
1.199999999999999992e-10 5.970519967071326351e-09 4.243202205886811431e-09 4.245301546807711792e-09 8.197079930137601878e+02 -1.549829930131798619e+03 5.397878921997155430e+02
1.199999999999999992e-10 6.127209464462189887e-09 1.166332849618625403e-09 6.299157385356318620e-09 2.487052192745689808e+03 4.090045156949580587e+02 -2.795468484671812803e+03
1.199999999999999992e-10 8.010580869409416833e-09 1.713379621729543407e-10 7.360723144750112090e-09 -1.715496841529389656e+02 -2.224946444866572165e+03 -9.516764190800679444e+02
ITEM: TIMESTEP
2200
ITEM: NUMBER OF ATOMS
10
ITEM: BOX BOUNDS f f f
0 1e-08
0 1e-08
0 1e-08
ITEM: ATOMS radius x y z v_x v_y v_z
1.199999999999999992e-10 3.217601401540398242e-09 4.677023893438672323e-09 4.540805996616551836e-09 4.946899676111291342e+02 -8.315934347415466164e+02 1.336599777821958014e+03
1.199999999999999992e-10 8.872244011953529123e-09 5.568963392546574957e-09 4.904003482861026055e-09 4.459957349856496762e+02 6.110148523666051688e+02 -1.105338202407991957e+03
1.199999999999999992e-10 5.014582791612266093e-09 5.907393289370729982e-09 7.283018492562394645e-09 2.061491964387338157e+03 -3.785506506464389076e+03 -1.120403781569750890e+03
1.199999999999999992e-10 9.791549878606960068e-09 2.328413825351783997e-09 9.954878480470485555e-09 -1.309047869346422431e+03 -2.922100517903871605e+03 -2.903671407798694418e+03
1.199999999999999992e-10 4.975790673847905373e-09 8.464447307391276534e-09 4.854031145848463216e-09 1.929124547868858826e+03 2.337902072887523445e+03 -9.467960630000270612e+02
1.199999999999999992e-10 9.260335520286817219e-09 4.207745121502639600e-09 1.644805909091878740e-09 8.186096417358113513e+02 -7.083583091205834990e+02 -1.424821991222970382e+03
1.199999999999999992e-10 9.482263229975608931e-09 3.375641559674557430e-09 6.358624927160794312e-09 8.550174596006607999e+02 4.117147448418800195e+03 -1.133259780619039930e+03
1.199999999999999992e-10 6.026151967449088942e-09 4.148950259939117179e-09 4.073732667903769911e-09 2.454532677407045867e+03 -1.086203313422947986e+03 -1.295299744921841921e+03
1.199999999999999992e-10 6.337639190093345219e-09 1.406222384660405657e-09 6.131632554949983861e-09 3.071674474652224944e+03 3.074080838849984048e+03 1.174918681384737738e+03
1.199999999999999992e-10 7.942464389941975147e-09 1.028565840272102870e-10 7.461522671185050171e-09 -2.400063689015640875e+02 1.729932018037119860e+03 3.175849183104560325e+00
ITEM: TIMESTEP
2300
ITEM: NUMBER OF ATOMS
10
ITEM: BOX BOUNDS f f f
0 1e-08
0 1e-08
0 1e-08
ITEM: ATOMS radius x y z v_x v_y v_z
1.199999999999999992e-10 3.176293910919796970e-09 4.420495076058626025e-09 4.563578386711809141e-09 5.378423025117261886e+02 -2.205701203869253732e+03 -5.463400940295424562e+02
1.199999999999999992e-10 8.819846536600807764e-09 5.526965142310509274e-09 4.765694300832108579e-09 -8.552239337283126588e+02 -2.016476177255285393e+03 -5.250831055966892791e+02
1.199999999999999992e-10 5.106618489335771472e-09 5.571922032175397819e-09 7.151840548186180434e-09 3.020448761808659697e+02 -3.003502944892164123e+03 -7.110954210071131456e+02
1.199999999999999992e-10 9.642002395662458777e-09 1.931389139503147122e-09 9.811866060607175154e-09 -3.358165317833784229e+02 -4.402910149061915035e+03 1.642029137974855075e+03
1.199999999999999992e-10 5.026809625831032192e-09 8.588360693827574672e-09 4.904618893336732630e-09 -4.425712658186714066e+02 8.093862491333949265e+02 7.302144502722842390e+02
1.199999999999999992e-10 9.381121524904433379e-09 4.010095452411840119e-09 1.411484827732217121e-09 8.443628121708616163e+02 -2.748154439387244111e+03 -2.528757683561130762e+03
1.199999999999999992e-10 9.365763505904024791e-09 3.560128960454925047e-09 6.170094180884672714e-09 -5.306127620373092668e+02 1.103355334023107730e+02 -1.844197848968411108e+03
1.199999999999999992e-10 6.275354502114314626e-09 4.102950839932179256e-09 4.056154256074197764e-09 1.666938021977895914e+03 8.874153454146160129e+02 -3.634687799356200912e+02
1.199999999999999992e-10 6.436475276311256045e-09 1.588026063106665564e-09 6.317763995109778468e-09 -5.154478498427492923e+02 1.168701902174605493e+03 2.099177089316356728e+02
1.199999999999999992e-10 8.004636821019370318e-09 2.165151539685067007e-10 7.526915806605119706e-09 1.010948573955275151e+03 -7.411131825805525750e+02 -7.599269016183711756e+02
ITEM: TIMESTEP
2400
ITEM: NUMBER OF ATOMS
10
ITEM: BOX BOUNDS f f f
0 1e-08
0 1e-08
0 1e-08
ITEM: ATOMS radius x y z v_x v_y v_z
1.199999999999999992e-10 3.144700868365146646e-09 4.323503689268770176e-09 4.577344185335146458e-09 9.602437126984987117e+02 -8.223965395793435391e+02 1.503606085656291725e+03
1.199999999999999992e-10 8.781775913508431999e-09 5.439545412519357974e-09 4.931718653411902053e-09 4.942336403305969270e+02 -4.040691451955069624e+02 2.722352801395334154e+03
1.199999999999999992e-10 5.225970069782657466e-09 5.158781689170615908e-09 7.078940866283404621e-09 2.174514507778262214e+03 -5.001858269424158607e+03 -1.576268916215949957e+03
1.199999999999999992e-10 9.512287370138126452e-09 1.724596397305728516e-09 9.992760902354838046e-09 -2.284925133274436462e+02 -2.037532065033968820e+03 -1.425082009940375428e+03
1.199999999999999992e-10 4.963095917234817079e-09 8.670990228018421064e-09 4.842962881095364149e-09 -8.745703180384321058e+02 1.981058480912664891e+03 -1.219981519733626101e+03
1.199999999999999992e-10 9.310251214037148445e-09 3.810875037767852504e-09 1.077756103682536336e-09 -6.422275986159572767e+02 -6.999489922750788082e+02 -3.936301689230504962e+03
1.199999999999999992e-10 9.346438301042840364e-09 3.540272071522318938e-09 6.237520964460676009e-09 2.243873231971898008e+02 -8.551109740851508150e+02 -9.052602301907317042e+02
1.199999999999999992e-10 6.444306193735266235e-09 4.131016516556861400e-09 4.051301146440015870e-09 1.075095277698524797e+03 -2.063959757611766690e+03 6.059733710960932029e+01
1.199999999999999992e-10 6.368133623930282927e-09 1.675376143735718489e-09 6.332268615653544055e-09 -1.934134842852954080e+03 6.877927392668872244e+02 6.213197741370427138e+02
1.199999999999999992e-10 8.141163029991265068e-09 7.323727855857146996e-11 7.449636719587807009e-09 6.745642220671242058e+02 -1.776154423478996023e+03 5.071526710222846646e+01
ITEM: TIMESTEP
2500
ITEM: NUMBER OF ATOMS
10
ITEM: BOX BOUNDS f f f
0 1e-08
0 1e-08
0 1e-08
ITEM: ATOMS radius x y z v_x v_y v_z
1.199999999999999992e-10 3.018779446958334488e-09 4.140401124272433687e-09 4.686735945516980768e-09 9.285175560740096898e+02 -9.957137780837924765e+02 -2.144601476027566207e+02
1.199999999999999992e-10 8.779926482990661507e-09 5.407049744297350041e-09 5.224629326309629747e-09 -1.700031515212897375e+02 -9.753869873690831582e+00 1.919317948185627984e+03
1.199999999999999992e-10 5.197406924864293159e-09 4.919142876542440917e-09 7.022830703537187306e-09 -1.226615853155767127e+03 1.655971195365570566e+03 -2.272771410815456079e+02
1.199999999999999992e-10 9.544981879092089822e-09 1.516193797525154691e-09 9.924812396541712662e-09 2.207190402766525040e+03 -2.178917005498954495e+03 1.633302138858275896e+02
1.199999999999999992e-10 4.967505174461649408e-09 8.742419420627548006e-09 4.807938223342033609e-09 1.674210065171436554e+03 -6.694823762736439221e+02 -1.339765145990142400e+03
1.199999999999999992e-10 9.188720923651170728e-09 3.728098971585531673e-09 8.529268331566358990e-10 -1.195831033743010039e+03 -1.539642075355551242e+03 -2.494633949343286531e+03
1.199999999999999992e-10 9.291359887333354356e-09 3.520384821427249444e-09 6.103524209065583661e-09 -2.102410894910371553e+03 -1.317424834356230122e+03 -1.929490332233596064e+03
1.199999999999999992e-10 6.509710959222120580e-09 4.089848073390954730e-09 4.075641444289494377e-09 -1.054049415966559309e+03 1.797062709853758861e+03 -2.334464339993181056e+03
1.199999999999999992e-10 6.104375696730694610e-09 1.906152948669248983e-09 6.417114493306313623e-09 -3.358309588182986317e+03 2.541930255097561712e+03 3.874198245667520268e+02
1.199999999999999992e-10 8.142183994091765006e-09 4.075739996537220491e-11 7.561815916095369061e-09 -8.919290542125179400e+02 1.731051237286358173e+03 -7.443951714124754062e+02
ITEM: TIMESTEP
2600
ITEM: NUMBER OF ATOMS
10
ITEM: BOX BOUNDS f f f
0 1e-08
0 1e-08
0 1e-08
ITEM: ATOMS radius x y z v_x v_y v_z
1.199999999999999992e-10 3.015469733483678146e-09 4.088648144416743212e-09 4.601037259722046904e-09 3.601870099900596642e+02 -7.392500210600778701e+02 -1.850305227861476851e+03
1.199999999999999992e-10 8.630830632642960942e-09 5.354008549292340942e-09 5.367398650833480294e-09 -2.781272642610767434e+03 -9.360862405352212363e+02 1.008905045885299359e+02
1.199999999999999992e-10 5.005817800012286227e-09 5.024532763357727224e-09 7.000715565553814985e-09 -8.884475506919854979e+02 -9.182571004940919011e+02 -3.790857139158549671e+02
1.199999999999999992e-10 9.786004593710456665e-09 1.462766756960053498e-09 9.803726924068912959e-09 3.291340486963604690e+03 6.920516480181081533e+02 -2.018403435188103231e+03
1.199999999999999992e-10 5.072603964930590676e-09 8.576821653741427112e-09 4.804253538611992050e-09 1.778135136582635596e+02 -1.678752873239191558e+03 2.861488016258521725e+02
1.199999999999999992e-10 9.049420646190118351e-09 3.698439222074380937e-09 6.229421321774009662e-10 1.765433454748668964e+02 -2.238716338768626883e+03 -8.481979455530296264e+02
1.199999999999999992e-10 9.266447509166139345e-09 3.489353111937757181e-09 5.985840421228229093e-09 4.587007451923384451e+02 1.607426683726037709e+03 -1.029295322629145630e+03
1.199999999999999992e-10 6.483135253439726503e-09 4.254861857043919887e-09 3.890213662719280700e-09 1.500475280063039918e+02 2.977279361384066306e+03 -1.282168571371966891e+03
1.199999999999999992e-10 5.996366512349405120e-09 2.093811570283285779e-09 6.497751050911021724e-09 1.076766125704732076e+03 2.122913192157976027e+03 3.684281625285469204e+02
1.199999999999999992e-10 8.103246965091855653e-09 1.750421616823077065e-10 7.464235864633658611e-09 5.817934004876437939e+02 1.835350290175244936e+03 -7.942254281257987714e+02
ITEM: TIMESTEP
2700
ITEM: NUMBER OF ATOMS
10
ITEM: BOX BOUNDS f f f
0 1e-08
0 1e-08
0 1e-08
ITEM: ATOMS radius x y z v_x v_y v_z
1.199999999999999992e-10 3.102687895043673478e-09 3.968026213082933853e-09 4.653621325256312162e-09 -2.598502963104972423e+02 -1.634790791571022510e+03 2.291441898331690027e+03
1.199999999999999992e-10 8.521133897044341730e-09 5.200064175077548615e-09 5.417038259054164717e-09 -2.831034208212543490e+03 -2.578436751480288422e+03 7.247582512166702600e+02
1.199999999999999992e-10 4.966084898508061674e-09 4.999483089364275406e-09 6.873473834290669120e-09 -7.466779927439839639e+02 -5.676595333346360803e+02 -1.736026983779795046e+03
1.199999999999999992e-10 9.945867861378503196e-09 1.611360794972389571e-09 9.663861516454743508e-09 -1.139808991049350880e+03 1.193975926970154433e+03 -1.245195988759016927e+03
1.199999999999999992e-10 4.933173554834838555e-09 8.650903920921745210e-09 4.656953696030135322e-09 -2.725534562869020192e+03 1.958252468213363954e+03 -2.495104755856893348e+02
1.199999999999999992e-10 8.944297429706071860e-09 3.481871285538252968e-09 5.386970713187581145e-10 -1.206618580181049083e+03 -1.244015719348139100e+03 -8.762842707488021006e+02
1.199999999999999992e-10 9.422518414534329077e-09 3.636134812012614036e-09 6.004582905122355704e-09 2.260868946720987879e+03 2.013602409162222102e+03 4.140734132034225468e+01
1.199999999999999992e-10 6.525320531830980464e-09 4.426449866371893387e-09 3.794988658005486152e-09 -3.379104293579065370e+02 -2.174847594957593344e+01 -9.770013331525797184e+02
1.199999999999999992e-10 6.097747191057039271e-09 1.970104249953082895e-09 6.663291107642767522e-09 1.672954085682757977e+03 -4.629168105050489430e+03 1.572541119082116893e+03
1.199999999999999992e-10 8.140859492527169071e-09 2.862402189838028105e-10 7.451595281308487086e-09 2.867755208783320597e+01 8.333794123328405021e+02 8.267270297228954234e+01
ITEM: TIMESTEP
2800
ITEM: NUMBER OF ATOMS
10
ITEM: BOX BOUNDS f f f
0 1e-08
0 1e-08
0 1e-08
ITEM: ATOMS radius x y z v_x v_y v_z
1.199999999999999992e-10 3.086273587084847190e-09 3.960829758720270556e-09 5.068103972522080313e-09 -3.583409910716406443e+01 -1.186438342886401642e+03 2.773834082333366496e+03
1.199999999999999992e-10 8.345057367083320004e-09 4.984444216651648967e-09 5.466996077400547033e-09 1.929842636344444600e+02 -1.964897548995313628e+03 5.953038392888828412e+02
1.199999999999999992e-10 4.827149460477530020e-09 4.935294642085347775e-09 6.771321419070562761e-09 -1.118652262663229749e+03 -1.350691033573771620e+03 1.551134819721067288e+03
1.199999999999999992e-10 9.868400815654837918e-09 1.785761378108990869e-09 9.663174900123011424e-09 -7.881064071986651243e+02 1.745836349512202787e+03 8.449921720790331392e+02
1.199999999999999992e-10 4.729766064751333421e-09 8.842901940454740572e-09 4.633633237631682037e-09 -3.163065731438509829e+02 1.984343182046169204e+03 1.061571219129302335e+03
1.199999999999999992e-10 9.002415187356491543e-09 3.408412190258266730e-09 4.139633055615006165e-10 4.642217048248307378e+02 -3.765479047477924723e+02 -1.609691066551437871e+03
1.199999999999999992e-10 9.547903344195478753e-09 3.857045812832669856e-09 6.019443268636909269e-09 2.653814023648447346e+03 2.283241549357484928e+03 1.895894639780527768e+01
1.199999999999999992e-10 6.430833753803364636e-09 4.429137726000834742e-09 3.807260978413614580e-09 -2.177360222489577950e+02 -7.166450571224650048e+02 1.175070334057416403e+03
1.199999999999999992e-10 6.276824699062793708e-09 1.852799777734282927e-09 6.720960222437358471e-09 2.229127709591303756e+03 8.943497412522341392e+02 -1.633501405723196058e+03
1.199999999999999992e-10 8.226547653011578046e-09 3.210159153470969734e-10 7.470339805178603114e-09 9.366826496112626046e+02 1.724105119828542001e+03 3.924827447425545870e+02
ITEM: TIMESTEP
2900
ITEM: NUMBER OF ATOMS
10
ITEM: BOX BOUNDS f f f
0 1e-08
0 1e-08
0 1e-08
ITEM: ATOMS radius x y z v_x v_y v_z
1.199999999999999992e-10 3.128854576199278935e-09 3.817933446648380099e-09 5.206314706450067214e-09 -7.043561204507390130e+02 -1.010237887951850979e+02 -9.766164704998499246e+01
1.199999999999999992e-10 8.494447701913892716e-09 4.919405955685977104e-09 5.471400599750035254e-09 2.455324946218472178e+03 -2.503332342132079020e+02 -5.537422912224745915e+02
1.199999999999999992e-10 4.797667231248360615e-09 4.766182158479131955e-09 6.803354060275854782e-09 1.459752733790519869e+03 -2.069482132039224325e+03 1.752308380664487686e+00
1.199999999999999992e-10 9.663675421179956742e-09 1.951604303890681945e-09 9.848011055309435072e-09 -1.951755248468099580e+03 1.535873118123450695e+03 1.315610423289312394e+03
1.199999999999999992e-10 4.811098580614320927e-09 8.998158481785717638e-09 4.707577838143886410e-09 1.587639751866174151e+02 1.428022686782939218e+03 -1.296267247015992325e+03
1.199999999999999992e-10 9.077263103402832751e-09 3.415955439017879581e-09 3.648033074326754301e-10 7.641323080260159486e+02 -4.531346096710150846e+02 2.309528547139033492e+02
1.199999999999999992e-10 9.667594895741916591e-09 3.839648138037274588e-09 6.061632678928330266e-09 9.904434213281460870e+02 -8.063715331807350140e+02 -2.738402656118477125e+02
1.199999999999999992e-10 6.420439384084376678e-09 4.368769939637532497e-09 3.969309353881013991e-09 2.844954974080856118e+02 -1.058357989346684690e+03 1.910923965291164677e+03
1.199999999999999992e-10 6.581889474383351477e-09 1.999059648794086280e-09 6.660231373573590199e-09 3.458732198195918954e+03 1.634621956245007595e+03 -1.998146671143759932e+02
1.199999999999999992e-10 8.334981013016023193e-09 4.455760220307804426e-10 7.483664150691293722e-09 -2.950371979757822487e+02 5.272551989962981907e+02 -2.878852405817831368e+03
ITEM: TIMESTEP
3000
ITEM: NUMBER OF ATOMS
10
ITEM: BOX BOUNDS f f f
0 1e-08
0 1e-08
0 1e-08
ITEM: ATOMS radius x y z v_x v_y v_z
1.199999999999999992e-10 2.998985382113449253e-09 3.757929688188770313e-09 5.117831962806470729e-09 -2.330883715027415292e+03 -6.682255668158466051e+02 -1.944486373403434072e+03
1.199999999999999992e-10 8.742551210489571788e-09 4.904107079949955732e-09 5.537742651087147312e-09 1.629886663664977732e+03 5.143244414345983841e+02 7.809298835139937864e+02
1.199999999999999992e-10 5.068552084648887803e-09 4.632032529108694360e-09 6.700503061272730030e-09 3.123169395521223578e+03 -1.908121367566742265e+03 -8.619918146364934728e+02
1.199999999999999992e-10 9.577633490462718815e-09 2.046510844940486980e-09 9.978675719948789329e-09 5.447623320553321946e+01 -1.921066099985591563e+03 2.748047051319681941e+03
1.199999999999999992e-10 4.778980042917466585e-09 9.043381723116982875e-09 4.604963554883067685e-09 -6.532939536544440671e+02 -5.222262010215013106e+02 2.557170213180538951e+02
1.199999999999999992e-10 9.280987590919275632e-09 3.344748950443799491e-09 1.899673854210741715e-10 -3.530292667860220490e+01 -5.578918562017955765e+02 -4.031728392395106766e+03
1.199999999999999992e-10 9.888118528021289510e-09 3.721174457980114588e-09 6.154192100637544567e-09 2.215528626415146391e+03 -2.692177800449111146e+03 2.086508474096646069e+02
1.199999999999999992e-10 6.455411154369816606e-09 4.293635751625838344e-09 3.994311356261069901e-09 1.690841011593542135e+03 1.454980813234558354e+03 1.252544603913862602e+03
1.199999999999999992e-10 6.771285217296514332e-09 2.148123354994999255e-09 6.497786441713580345e-09 2.344421699299000011e+03 1.120203651621225617e+03 -1.319916837167840413e+03
1.199999999999999992e-10 8.219560165222043718e-09 4.434887409932794695e-10 7.312181683186269022e-09 -1.498334069338300196e+03 1.169181132429229820e+03 -6.169530909535269103e+01
ITEM: TIMESTEP
3100
ITEM: NUMBER OF ATOMS
10
ITEM: BOX BOUNDS f f f
0 1e-08
0 1e-08
0 1e-08
ITEM: ATOMS radius x y z v_x v_y v_z
1.199999999999999992e-10 2.889334442427587657e-09 3.737774606747680586e-09 4.956661958812356998e-09 -3.354298073894880190e+02 6.897240616986439363e+02 -2.560609974094837071e+03
1.199999999999999992e-10 8.765232989814879685e-09 4.999630596025277026e-09 5.596140896286920595e-09 -1.678620366448863876e+02 9.387207277321263064e+02 6.109158648654143917e+02
1.199999999999999992e-10 5.112021720176734276e-09 4.514769819712087522e-09 6.595058053248275370e-09 5.667411503305786482e+02 -1.247754973348312888e+03 3.949535063687698653e+02
1.199999999999999992e-10 9.524240631874765048e-09 1.935120679831832075e-09 9.767877531281374258e-09 -5.763328631145136569e+02 -2.064463134226229158e+03 -1.273828170624141649e+03
1.199999999999999992e-10 4.699750279720562709e-09 8.979037915795741092e-09 4.587012547149511465e-09 -1.255202920840263914e+03 -1.359490492309327692e+03 -1.597175424585712562e+03
1.199999999999999992e-10 9.401523994561463714e-09 3.235387554562825842e-09 1.544240453686481850e-10 1.626226640306138734e+03 -2.171283637586736859e+03 1.606827638020193490e+03
1.199999999999999992e-10 1.000075437628548207e-08 3.484412167373651836e-09 6.199228844506795244e-09 -3.342615205938178065e+02 -1.392430440829023610e+03 -1.662532794974707031e+03
1.199999999999999992e-10 6.542004822797923861e-09 4.428614376898132408e-09 4.070242248782468402e-09 -5.576011908964200074e+02 2.080010874898594921e+03 3.494692391296699498e+03
1.199999999999999992e-10 7.018801767081995510e-09 2.151305131502806958e-09 6.203378573439802221e-09 3.464714016602788433e+03 -3.751360689634559549e+02 -2.477656285412801026e+03
1.199999999999999992e-10 8.129418746028333493e-09 4.320838492547619233e-10 7.315820229436676007e-09 -3.926832762994888526e+01 -1.749882710307615071e+03 -1.149342484518674610e+03
ITEM: TIMESTEP
3200
ITEM: NUMBER OF ATOMS
10
ITEM: BOX BOUNDS f f f
0 1e-08
0 1e-08
0 1e-08
ITEM: ATOMS radius x y z v_x v_y v_z
1.199999999999999992e-10 2.960715031897484988e-09 3.773057580810972599e-09 4.743510969709004757e-09 1.436216923497725247e+03 -4.273453629389023263e+02 -1.426644404216619250e+03
1.199999999999999992e-10 8.733622638562969367e-09 4.953467312057026614e-09 5.860017254570971679e-09 2.132217096299779769e+03 -6.434937055462679609e+02 2.677052333497009840e+03
1.199999999999999992e-10 5.215566531084272134e-09 4.444393146784401920e-09 6.699460018358334373e-09 1.545355291234954848e+03 -6.674571692576685109e+02 2.152552320537162814e+03
1.199999999999999992e-10 9.485088156088730283e-09 1.785285375569613236e-09 9.798311338015782744e-09 9.955328996872185598e+01 -8.974067795177063545e+02 1.357789842183427481e+03
1.199999999999999992e-10 4.550841760993126646e-09 8.826391308566371511e-09 4.396447839477196982e-09 -2.789434014085852027e+02 -9.732702834951758177e+02 -1.662083962559773909e+02
1.199999999999999992e-10 9.364857293342839500e-09 3.082176001752402566e-09 2.849748192015014774e-10 -6.428197197991996745e+02 -5.662064017212194358e+02 4.959596600378326912e+02
1.199999999999999992e-10 9.903504926590802624e-09 3.364978701475792881e-09 6.072658713006300502e-09 3.910622087730304202e+02 -1.463003099693761442e+03 -2.050465411501318158e+03
1.199999999999999992e-10 6.517149329883959477e-09 4.521066621021902051e-09 4.373615766070626995e-09 7.380975404990086872e+02 9.975879825991513599e+02 2.263143781452173698e+03
1.199999999999999992e-10 7.304385882975923383e-09 2.080111021088828346e-09 6.008941726546644386e-09 1.649238272364825661e+03 -1.650598412689768111e+03 -2.706519168371287378e+03
1.199999999999999992e-10 8.095893325979748776e-09 3.512704524929362057e-10 7.237290989227494373e-09 -1.563596975702283544e+03 5.428627514380521006e+02 -5.484506649983466104e+02
ITEM: TIMESTEP
3300
ITEM: NUMBER OF ATOMS
10
ITEM: BOX BOUNDS f f f
0 1e-08
0 1e-08
0 1e-08
ITEM: ATOMS radius x y z v_x v_y v_z
1.199999999999999992e-10 2.986263952650903762e-09 3.664074829884190943e-09 4.822321507319301046e-09 -2.396447572762976051e+03 -1.436960217081710880e+03 1.800667959470529922e+03
1.199999999999999992e-10 8.788575467722157329e-09 4.861733968674422416e-09 5.982002828872020756e-09 -1.906627261967091272e+03 -1.349332946734627058e+03 2.755558160956930806e+03
1.199999999999999992e-10 5.425953204152928973e-09 4.263826821892141787e-09 6.737204160262994406e-09 1.431012841384020021e+03 -2.724025678935297492e+03 -4.657856517273606300e+01
1.199999999999999992e-10 9.624019558090653039e-09 1.770552077856414809e-09 9.929748095724281262e-09 -5.248655317897072337e+01 3.619000799227802645e+01 2.459626585383997735e+03
1.199999999999999992e-10 4.623005644823657171e-09 8.953496268546599696e-09 4.356972375120885449e-09 4.326991521944933083e+02 9.699972784284444742e+02 1.053837272860765779e+02
1.199999999999999992e-10 9.177689117974996704e-09 2.912904120853836809e-09 2.721325799148247321e-10 -3.354877504739241886e+03 -1.862717649910507134e+03 -2.598076425895224020e+02
1.199999999999999992e-10 9.822024692586717820e-09 3.238035082844157677e-09 5.913508385479535549e-09 -1.841563214036588306e+03 6.478410670215769187e+02 -2.208274119744794461e+03
1.199999999999999992e-10 6.573878832448764401e-09 4.435253628908302539e-09 4.462429599856050868e-09 8.934811794135838454e+02 -2.023243514536455450e+03 1.230656155246652474e+02
1.199999999999999992e-10 7.490576102286892586e-09 2.017205239210601481e-09 5.796820834144142631e-09 2.108848024903442820e+03 -4.233342611834133322e+02 -2.290401354201123013e+03
1.199999999999999992e-10 8.002949125025253501e-09 3.759195662254813707e-10 7.172758630113706160e-09 -6.263441619878257143e+02 -2.082882290916842521e+03 -1.095408772975376678e+03
ITEM: TIMESTEP
3400
ITEM: NUMBER OF ATOMS
10
ITEM: BOX BOUNDS f f f
0 1e-08
0 1e-08
0 1e-08
ITEM: ATOMS radius x y z v_x v_y v_z
1.199999999999999992e-10 2.798125965295898480e-09 3.602134728311022535e-09 5.000775174687708181e-09 -1.579978703989883343e+03 -1.155375828345035529e+02 3.888884194336301334e+02
1.199999999999999992e-10 8.561362178053886886e-09 4.718707300403170417e-09 6.224899650939970590e-09 -4.019039050044472333e+03 -8.791148628799746803e+02 2.001189584386898332e+03
1.199999999999999992e-10 5.552907292282661699e-09 4.212169787314590855e-09 6.654609271742873576e-09 2.758670772846547607e+03 2.492572425974352882e+03 -3.398915989035334633e+02
1.199999999999999992e-10 9.656137834182457784e-09 1.743804772740694904e-09 9.975648678100648031e-09 1.755312565122417482e+03 4.584332039862215424e+01 2.208679232270553143e+02
1.199999999999999992e-10 4.646917358912621601e-09 8.997408978691953923e-09 4.495779145314199774e-09 3.050415649433430190e+02 -2.040054755564271147e+02 8.765964446337421805e+02
1.199999999999999992e-10 8.970410068357550947e-09 2.662176960032324673e-09 1.353401234736371511e-10 -1.192658924565883751e+02 4.658396381922406704e+02 -6.576559103518151232e+02
1.199999999999999992e-10 9.705784383411935182e-09 3.261717278258962307e-09 5.598385314100106133e-09 1.807595010209602151e+02 -1.508390420010773141e+03 -2.698632251147203078e+03
1.199999999999999992e-10 6.521051585113774004e-09 4.382640164717753863e-09 4.399276729508391924e-09 -1.759377326170625111e+03 3.111981900816415987e+02 -2.134954102526702627e+03
1.199999999999999992e-10 7.426833310333365104e-09 2.035861722673413669e-09 5.731268528118472714e-09 -2.441249140001028081e+03 1.312919057380985578e+03 1.132304846024455856e+02
1.199999999999999992e-10 8.055275749676417916e-09 3.343204494829420944e-10 7.136888127176434587e-09 1.406031206549747367e+03 1.805008824624880390e+03 1.446032164317422712e+03
ITEM: TIMESTEP
3500
ITEM: NUMBER OF ATOMS
10
ITEM: BOX BOUNDS f f f
0 1e-08
0 1e-08
0 1e-08
ITEM: ATOMS radius x y z v_x v_y v_z
1.199999999999999992e-10 2.899730894456928869e-09 3.553033887168664411e-09 5.091736206582045360e-09 1.408384660311651942e+03 3.065366172649195846e+02 1.104174516718109999e+03
1.199999999999999992e-10 8.238152144493268818e-09 4.581856616388476065e-09 6.383074385244445886e-09 -2.666536496050550340e+03 -1.375043669500558508e+03 1.832237448787031099e+03
1.199999999999999992e-10 5.727588897386247123e-09 4.407315443083335576e-09 6.554131550798294708e-09 1.205960498314847655e+03 3.581057331887413511e+03 -2.078282998481010964e+03
1.199999999999999992e-10 9.613613641620244510e-09 1.767158981842148524e-09 9.946499081586936872e-09 3.562741051301623543e+02 -1.980723899204650706e+02 -2.906759045203361325e+02
1.199999999999999992e-10 4.641751832527543116e-09 9.003246509575683095e-09 4.687465588781239268e-09 -1.089894856156219248e+03 -1.035985696970722984e+03 1.310574408711535625e+03
1.199999999999999992e-10 8.851717770396423316e-09 2.754485072980736887e-09 3.714030326089436230e-11 -1.597574722866800130e+03 7.942330272132941218e+02 1.866338651461699556e+03
1.199999999999999992e-10 9.570173243674111916e-09 3.184089974816658214e-09 5.381483887864046023e-09 -3.712876701480473457e+03 -1.277037945605487494e+03 -1.096616015088889071e+03
1.199999999999999992e-10 6.378959334912138632e-09 4.469054854471772600e-09 4.166892145650285362e-09 -2.501730958475574880e+03 3.420933066190512363e+03 -2.658807146244456817e+03
1.199999999999999992e-10 7.202306782157466790e-09 2.124689868055048645e-09 5.715068283903519888e-09 -1.759118803844949980e+03 3.332988196056749075e+02 -5.090768932321187208e+02
1.199999999999999992e-10 8.239923726386123680e-09 3.401632198211826436e-10 7.258552090316910602e-09 1.148908900640825323e+03 -2.465724711259103969e+02 -3.913760426012180460e+02
ITEM: TIMESTEP
3600
ITEM: NUMBER OF ATOMS
10
ITEM: BOX BOUNDS f f f
0 1e-08
0 1e-08
0 1e-08
ITEM: ATOMS radius x y z v_x v_y v_z
1.199999999999999992e-10 2.973088084229815200e-09 3.252433408017156046e-09 5.164419797672237424e-09 6.181920171420199495e+02 -3.723318825807898520e+03 -5.142439357311636741e+02
1.199999999999999992e-10 7.993882895205854110e-09 4.592883096964297735e-09 6.438274305260978777e-09 -2.225018456685498677e+03 2.951884893245162971e+02 -1.215063058218069045e+02
1.199999999999999992e-10 5.740492678303147170e-09 4.672312105327444137e-09 6.450272144970518290e-09 6.460567115894094741e+02 1.149638450658011607e+03 5.432935869569097349e+02
1.199999999999999992e-10 9.768707944085213634e-09 1.944604343944610912e-09 9.960727569614601998e-09 2.058076668708261877e+03 3.630106790607330367e+03 -1.734167800759881629e+03
1.199999999999999992e-10 4.606413385111482959e-09 9.093503421109883250e-09 4.690810914070239374e-09 -2.523392867168047076e+02 1.018571801885851755e+03 -4.318684261654777856e+02
1.199999999999999992e-10 8.694812417103943596e-09 2.863073620649303399e-09 9.063862402877879335e-11 1.831334093222065803e+03 -4.181189260771523095e+02 1.544699600458346822e+03
1.199999999999999992e-10 9.359994652165163338e-09 3.127714827550816182e-09 5.157765370416216520e-09 -1.992961094939949817e+03 -4.342821290465540187e+02 -1.422155598285735323e+03
1.199999999999999992e-10 6.061430374508240238e-09 4.654868265746741537e-09 4.067494603031954229e-09 -1.833729556726732653e+03 -9.327244978435062421e+02 -1.686463137057598033e+03
1.199999999999999992e-10 7.153054089431590069e-09 2.113516633286519308e-09 5.602846393149710822e-09 9.995390052648518804e+02 -2.203238613363430886e+03 2.581380494186309988e+02
1.199999999999999992e-10 8.438013110179709849e-09 2.846565011777254338e-10 6.947431808363078497e-09 8.588208346574836014e+02 -2.703928460343834558e+03 -3.069742364873209681e+03
ITEM: TIMESTEP
3700
ITEM: NUMBER OF ATOMS
10
ITEM: BOX BOUNDS f f f
0 1e-08
0 1e-08
0 1e-08
ITEM: ATOMS radius x y z v_x v_y v_z
1.199999999999999992e-10 3.114976727974157382e-09 2.960353979938840297e-09 5.006317286513093603e-09 -1.932625800443944627e+03 -1.228717435018382957e+03 -1.421110846243925153e+03
1.199999999999999992e-10 7.810567542804494704e-09 4.739464989271009643e-09 6.381316993017078911e-09 -7.745294380318564436e+02 2.033151469652881815e+03 -1.616600481049378686e+03
1.199999999999999992e-10 5.798901264035942558e-09 4.822231994576375682e-09 6.528198482570270719e-09 1.611859134162137025e+03 2.275062121537522671e+03 -5.198422943371933798e+02
1.199999999999999992e-10 9.873425696525482605e-09 2.123177333002908815e-09 9.854178649019835608e-09 -1.188195996608852738e+02 2.158849651247278871e+03 2.521959182540018674e+01
1.199999999999999992e-10 4.675814848033117224e-09 9.060319006795482797e-09 4.677902531200490167e-09 2.301378603241111591e+02 3.524225912264530791e+01 8.329800861910393905e+02
1.199999999999999992e-10 8.696384361517752031e-09 2.999512913397011214e-09 2.042076890471276223e-10 -1.444883819121835586e+03 5.851301532941420191e+02 1.475208735801436205e+03
1.199999999999999992e-10 9.157494096028665396e-09 3.153297340737121322e-09 4.910283281855669127e-09 -1.354435865435708365e+03 -3.990713696520225540e+02 -2.766606303102826587e+03
1.199999999999999992e-10 6.055674602990478208e-09 4.676873814257681023e-09 4.010303004531479672e-09 -1.960170299574472210e+02 6.577664594161834657e+02 -6.656246685039711792e+02
1.199999999999999992e-10 7.152840579873575765e-09 2.044034989535273100e-09 5.739411254800041124e-09 -5.661093077194251464e+02 -5.015366179187653870e+02 1.704575484790819019e+03
1.199999999999999992e-10 8.395525857414654878e-09 5.265539121608824059e-11 6.841238152917843704e-09 -5.945931792526898789e+02 2.591623621686716433e+03 -5.728476681693365435e+02
ITEM: TIMESTEP
3800
ITEM: NUMBER OF ATOMS
10
ITEM: BOX BOUNDS f f f
0 1e-08
0 1e-08
0 1e-08
ITEM: ATOMS radius x y z v_x v_y v_z
1.199999999999999992e-10 2.933599961069122784e-09 2.922545116937233273e-09 4.775644185673088644e-09 -2.806187757672220414e+03 -7.026949548939978740e+02 -1.525693331888234070e+03
1.199999999999999992e-10 7.731539358934065701e-09 4.799973471848667885e-09 6.291937577740258850e-09 -6.515533421222980905e+02 -9.932981572979014118e+01 -1.297196559510920224e+02
1.199999999999999992e-10 5.961816639304777359e-09 4.942794200683767909e-09 6.482603566159379644e-09 1.921881422733067893e+03 -2.869843329292044700e+02 -8.002275614798347192e+01
1.199999999999999992e-10 9.939304227640915034e-09 2.135924952174100444e-09 9.816174369681859569e-09 -1.091608165581875056e+02 8.350662408402260439e+01 -1.468251568125170706e+03
1.199999999999999992e-10 4.762562911635674056e-09 9.078473546655913796e-09 4.834819720082809933e-09 2.043164929714251457e+03 1.231848710213895629e+03 8.206410193802456661e+02
1.199999999999999992e-10 8.600163751279249046e-09 3.184758910169016135e-09 1.895229959520632609e-10 -1.334840967926573285e+03 1.799589442622463366e+03 -1.351876710068458124e+03
1.199999999999999992e-10 9.226822074514497538e-09 3.128763302800819571e-09 4.676517751980394881e-09 -4.826381487502196137e+02 1.675691954109419612e+03 -2.062716011774753497e+03
1.199999999999999992e-10 5.980253370754552316e-09 4.694222364005079606e-09 4.085626805418020085e-09 -1.293971744204833840e+03 3.438058735499275826e+02 1.803403338250264596e+03
1.199999999999999992e-10 6.995517987954697287e-09 1.903336218674352782e-09 5.831498816888743853e-09 -2.459983112742931098e+03 -1.527142484126729869e+03 1.237006437182943273e+03
1.199999999999999992e-10 8.277325115766209387e-09 2.551018140337172293e-10 6.821201325361971328e-09 -2.651489412635324697e+03 1.096375059327958752e+03 5.765040732312172622e+02
ITEM: TIMESTEP
3900
ITEM: NUMBER OF ATOMS
10
ITEM: BOX BOUNDS f f f
0 1e-08
0 1e-08
0 1e-08
ITEM: ATOMS radius x y z v_x v_y v_z
1.199999999999999992e-10 2.679046058136197877e-09 2.789661076532025754e-09 4.751977781485579983e-09 -1.560637396732302022e+03 -8.847525187069786625e+02 8.073871392877425706e+02
1.199999999999999992e-10 7.650168935917441085e-09 4.705918418538165282e-09 6.178338901795403428e-09 9.371982074401380487e+02 3.152504153090351338e+02 -2.266761738155450530e+03
1.199999999999999992e-10 6.110698410374707597e-09 5.082226021593890381e-09 6.491576936599309593e-09 2.144933455615735056e+03 5.862547980465137698e+02 5.567775496191081857e+02
1.199999999999999992e-10 9.876770497915452908e-09 2.193115395278730328e-09 9.613270896713899401e-09 -1.009904180620249235e+03 1.074943157419509589e+03 -3.624070919993052485e+03
1.199999999999999992e-10 4.841292773298437775e-09 9.361479968913463410e-09 5.043079059982047980e-09 9.904016484128394495e+02 3.872723876662474595e+03 2.200986645662969295e+03
1.199999999999999992e-10 8.641828709656550029e-09 3.388191251069715807e-09 1.330747670540817449e-10 -4.681601860430575357e+00 1.456723347125583587e+03 -1.348693688417162548e+03
1.199999999999999992e-10 9.280824283226318149e-09 3.409582306707252764e-09 4.502830094829567252e-09 1.850613375686136578e+03 1.360865445518312072e+03 2.473442553922708385e+02
1.199999999999999992e-10 5.783137459709496862e-09 4.766242693400636344e-09 4.240258065738551064e-09 -1.110220771495074814e+03 1.318894337074382975e+03 4.889138664203122744e+02
1.199999999999999992e-10 6.823792199454435038e-09 2.094420120343051247e-09 5.958036081096903267e-09 -5.640461012511597119e+02 2.634440712006569356e+03 3.963700418100131628e+00
1.199999999999999992e-10 8.140988077143141251e-09 2.237739716261216126e-10 6.780660835048499388e-09 -1.845186808486350174e+03 -2.128186209792949285e+03 -1.391218697935844602e+03
ITEM: TIMESTEP
4000
ITEM: NUMBER OF ATOMS
10
ITEM: BOX BOUNDS f f f
0 1e-08
0 1e-08
0 1e-08
ITEM: ATOMS radius x y z v_x v_y v_z
1.199999999999999992e-10 2.687108482579108711e-09 2.840731387046049276e-09 4.840615662429139823e-09 1.470243174013601902e+03 1.478780214212747296e+03 -1.792194780304471578e+03
1.199999999999999992e-10 7.659545539476917935e-09 4.780591653116876560e-09 6.137026025933353615e-09 -1.115010035353742069e+03 1.561850798571631913e+03 -1.452581559823874159e+03
1.199999999999999992e-10 6.133855291910343909e-09 5.337304499178229513e-09 6.565172836135302391e-09 8.006934069944996963e+02 4.756124722804919656e+03 -1.212634286502195664e+03
1.199999999999999992e-10 9.825203150478187857e-09 2.431473638707047388e-09 9.458006816371843140e-09 1.122715777217213827e+03 8.669876002596397484e+02 -1.223010479168066468e+03
1.199999999999999992e-10 4.930674013753531142e-09 9.651140848442447953e-09 5.184808191466821192e-09 7.146257418351651722e+02 2.302143333142182200e+03 1.894849038549947863e+03
1.199999999999999992e-10 8.541592967409350833e-09 3.310196992066912217e-09 1.606389923154543354e-11 -2.365693947178551298e+03 -2.934257386373158624e+03 -9.919219428128255913e+02
1.199999999999999992e-10 9.422791355016246473e-09 3.363446031259417532e-09 4.424691367015199463e-09 5.462750085269047986e+02 -2.633763808189696931e+01 -9.359674694802650947e+02
1.199999999999999992e-10 5.776058590917285120e-09 4.774779154627701296e-09 4.323560441503398493e-09 5.015820038436736468e+02 1.147350581217188619e+03 2.753731101181516578e+02
1.199999999999999992e-10 6.894289787667255006e-09 2.238602034939374869e-09 5.845877221963282685e-09 2.501426193944756051e+03 7.258056702710250647e+02 -9.773741388079399712e+02
1.199999999999999992e-10 8.136227938042333214e-09 1.395081514009835475e-10 6.693655882766008498e-09 1.242872616228280094e+03 3.774862839145442308e+02 2.145444774980051648e+02
ITEM: TIMESTEP
4100
ITEM: NUMBER OF ATOMS
10
ITEM: BOX BOUNDS f f f
0 1e-08
0 1e-08
0 1e-08
ITEM: ATOMS radius x y z v_x v_y v_z
1.199999999999999992e-10 2.662516603224750151e-09 2.931323334909922755e-09 4.843436900542669587e-09 8.550262701627900697e+02 1.151761621753634472e+03 1.884572911415284125e+03
1.199999999999999992e-10 7.639052597809203880e-09 4.755751455584186185e-09 6.066057466267346802e-09 2.655011490887540617e+02 -2.942246256074374287e+03 -1.951659585284317700e+03
1.199999999999999992e-10 6.204660399287331872e-09 5.575837389288435461e-09 6.423391082545726025e-09 2.924991199839726619e+02 3.052543451990149606e+03 -1.118688951310651873e+03
1.199999999999999992e-10 9.898994567961575762e-09 2.408130681427718872e-09 9.218825704639302410e-09 5.462361569239626533e+02 -6.076868191762162041e+02 -3.247252755932012860e+03
1.199999999999999992e-10 5.076758901845959223e-09 9.858434324331508588e-09 5.295511776675718402e-09 9.964977303796697470e+02 -1.059438264399074114e+01 2.151799357682742539e+03
1.199999999999999992e-10 8.427371513160432883e-09 3.146239761373634582e-09 2.321381485457674831e-11 -1.648423730898418171e+03 -2.266534617661670381e+03 -9.391710509931067463e+02
1.199999999999999992e-10 9.480737217621297497e-09 3.296309761135035658e-09 4.468205303648151849e-09 5.781932621138035984e+02 -4.940536698347546007e+02 1.247611036234259700e+03
1.199999999999999992e-10 5.852990942689104738e-09 4.949739263231664706e-09 4.379032881648379812e-09 1.508476830193882847e+02 1.694476167470358178e+03 2.072521333044878247e+03
1.199999999999999992e-10 7.105734243271851593e-09 2.126942809580810100e-09 5.600783007249459996e-09 2.371957406229873413e+03 -9.725363157330422155e+02 -2.266540574851699148e+03
1.199999999999999992e-10 8.125516329251686372e-09 1.939501465882899792e-10 6.631198442960572566e-09 -9.310960178226613380e+02 -4.791130049539619051e+01 -1.725318994538403103e+03
ITEM: TIMESTEP
4200
ITEM: NUMBER OF ATOMS
10
ITEM: BOX BOUNDS f f f
0 1e-08
0 1e-08
0 1e-08
ITEM: ATOMS radius x y z v_x v_y v_z
1.199999999999999992e-10 2.653349072717029339e-09 2.925525238478612009e-09 5.031411289734321433e-09 3.925816823597954226e+02 -1.484853071517087983e+03 1.935562372459845847e+03
1.199999999999999992e-10 7.586880363274473158e-09 4.667069151031716975e-09 6.002416106241546771e-09 -1.628507721051598764e+02 1.661009080703351799e+02 1.158206101471886996e+03
1.199999999999999992e-10 6.133008012401610679e-09 5.839174767373088780e-09 6.411157730551011100e-09 -1.150243136601338165e+03 7.734849817838927493e+02 -1.831614762985597622e+02
1.199999999999999992e-10 9.902739609462227332e-09 2.367053103280052128e-09 9.014714058418189626e-09 -2.469255728180658934e+03 -9.502270862798462758e+02 -6.104849738492097231e+02
1.199999999999999992e-10 5.202393720327216406e-09 9.943735071445544435e-09 5.608652825246444127e-09 2.581527498631737672e+02 1.924498932574473201e+03 4.063451160575507402e+03
1.199999999999999992e-10 8.401656317606010954e-09 2.992097696652606575e-09 2.002810964462328418e-11 1.009015220909348727e+03 4.149479768691527966e+02 -1.704353195823686747e+03
1.199999999999999992e-10 9.434255288202138611e-09 3.232149811614049024e-09 4.535934882423555954e-09 -2.839542988086333935e+03 -5.787753026429757028e+02 1.241692798304640064e+03
1.199999999999999992e-10 5.998824650524296029e-09 4.996957983197991273e-09 4.511018427421168732e-09 1.719938609886732593e+03 -1.710640535774672344e+02 2.032763139104575885e+03
1.199999999999999992e-10 7.195093381085196836e-09 2.035579978313673651e-09 5.413092211910346834e-09 2.108892107427446717e+03 -6.277801001505044951e+02 -1.491002586857188589e+03
1.199999999999999992e-10 8.157895698327441627e-09 2.637266090011871890e-10 6.494818594589364964e-09 1.334382997347084370e+02 9.997132394521663912e+01 -2.679499240121595449e+03
ITEM: TIMESTEP
4300
ITEM: NUMBER OF ATOMS
10
ITEM: BOX BOUNDS f f f
0 1e-08
0 1e-08
0 1e-08
ITEM: ATOMS radius x y z v_x v_y v_z
1.199999999999999992e-10 2.697261442835985063e-09 2.774484351815612081e-09 5.138971333509224432e-09 2.095078009987543908e+02 5.018752553532035563e+02 1.289696486097898514e+03
1.199999999999999992e-10 7.692800089133861596e-09 4.799389108658979210e-09 5.833475744927322639e-09 3.615745457760871432e+03 1.416961837807341453e+03 -1.381608587610597851e+03
1.199999999999999992e-10 6.033174632195553973e-09 5.940964578556395977e-09 6.261932955740169625e-09 1.763575327817578966e+02 3.849192559805100586e+02 -4.022664045079959124e+03
1.199999999999999992e-10 9.775320726917907516e-09 2.383575451903629570e-09 9.040770269550367532e-09 -1.294251044863665584e+03 1.278908132014704051e+03 1.236601660251940075e+03
1.199999999999999992e-10 5.254539499699053680e-09 9.965877123302429170e-09 5.930715710892003951e-09 8.788779352342208995e+01 -4.894210932651802182e+02 2.361163089377073902e+03
1.199999999999999992e-10 8.644356370179504271e-09 3.033174317388397652e-09 1.351992742996439959e-10 1.877064055754497303e+03 -1.395150325713137249e+02 2.409666985376027696e+03
1.199999999999999992e-10 9.221426358233302260e-09 3.261165162295440435e-09 4.622597880422513732e-09 -3.385231899399485656e+02 1.565417857683373313e+03 6.574800674977032031e+02
1.199999999999999992e-10 5.995808213077012086e-09 5.029735898506481129e-09 4.577905897847247049e-09 -2.250047828602625486e+03 -7.481537547175066720e+02 6.187849000007921063e+01
1.199999999999999992e-10 7.333176910603098409e-09 1.879065924444701401e-09 5.245668103026788233e-09 1.117094134065007665e+03 -2.019860531246679784e+03 -8.965567615867564655e+02
1.199999999999999992e-10 8.098277866741104119e-09 4.010975059614348086e-10 6.425720869777102912e-09 -1.720676058597001656e+03 1.764709260901656762e+03 1.747489988128114646e+03
ITEM: TIMESTEP
4400
ITEM: NUMBER OF ATOMS
10
ITEM: BOX BOUNDS f f f
0 1e-08
0 1e-08
0 1e-08
ITEM: ATOMS radius x y z v_x v_y v_z
1.199999999999999992e-10 2.818497812551152086e-09 2.815946942878881764e-09 5.196929412120666739e-09 9.829788696138567730e+02 1.150653651306515485e+03 -1.413474057785424066e+03
1.199999999999999992e-10 7.881488629333726843e-09 4.902588120280019687e-09 5.865862922960469515e-09 2.277713683367298927e+03 1.193460371135670357e+03 1.472234600250789299e+03
1.199999999999999992e-10 6.111140489726076207e-09 6.074457968987759630e-09 6.101343350468554574e-09 2.240105857703395486e+03 1.992904462487383398e+03 -5.851471143096893002e+02
1.199999999999999992e-10 9.675760210581555531e-09 2.488627476392197848e-09 8.976415719036002336e-09 -1.614277345917568937e+03 -1.645467920195346323e+03 -2.050018658617981600e+03
1.199999999999999992e-10 5.292133015256591730e-09 9.981325595416788833e-09 6.051954806199084918e-09 -4.932344537723262192e+02 -1.832887001840452967e+03 2.436276730692931380e+01
1.199999999999999992e-10 8.741319287120140612e-09 3.010530838636460138e-09 2.845184741262794616e-10 1.054693369595320746e+03 1.080471033755981352e+03 1.460324711525907446e+02
1.199999999999999992e-10 9.302904093599433444e-09 3.204923153826313248e-09 4.695060601624146285e-09 1.667530983629660568e+03 -7.492406105443668594e+02 6.333653728926099120e+02
1.199999999999999992e-10 5.715377558362479814e-09 5.089465453638320424e-09 4.495236111410840617e-09 -3.032319185017456221e+03 7.867141152908773165e+02 -9.514882968862548296e+02
1.199999999999999992e-10 7.303093465542389653e-09 1.696609541938100734e-09 5.151964117754792981e-09 4.590289703368899268e+02 -1.259218257140068999e+03 -2.285288327723937414e+02
1.199999999999999992e-10 8.178223980880146083e-09 4.428146534386974202e-10 6.442632868290758936e-09 3.612870996860809555e+03 1.004797253806213575e+03 1.871896808325673192e+03
ITEM: TIMESTEP
4500
ITEM: NUMBER OF ATOMS
10
ITEM: BOX BOUNDS f f f
0 1e-08
0 1e-08
0 1e-08
ITEM: ATOMS radius x y z v_x v_y v_z
1.199999999999999992e-10 2.910821469496695150e-09 2.801068068625594342e-09 4.960809574283918661e-09 6.051577088229500987e+02 -2.043246762395605174e+03 -1.857615299395990860e+01
1.199999999999999992e-10 7.992693147584404107e-09 4.999321737471053223e-09 6.098483312626839707e-09 -1.746934001490831463e+02 -1.653747777280345872e+02 1.451952456174239842e+03
1.199999999999999992e-10 6.191767935463109489e-09 6.119065672759340510e-09 6.123842351681937094e-09 1.101951247837017576e+02 -4.638867082913971558e+02 1.443302586267828019e+03
1.199999999999999992e-10 9.535051955576208010e-09 2.556787849169372893e-09 8.874116848198290391e-09 3.405514422445436367e+02 1.021465858346456343e+02 4.405234171004222503e+02
1.199999999999999992e-10 5.058560201986157860e-09 9.863137062923183550e-09 6.060283476899281087e-09 -1.166292643140072414e+03 -4.943125851090509286e+02 1.500948320025621570e+03
1.199999999999999992e-10 8.616853242801251317e-09 3.109271884480096283e-09 2.313723227546662968e-10 -1.891181200007918505e+03 -3.198431506223097358e+02 -7.565577589250393657e+02
1.199999999999999992e-10 9.487329427097500466e-09 3.122848846032800290e-09 4.764440542240982481e-09 5.926579622219113617e+02 6.279225109000439033e+02 1.683468649164522049e+03
1.199999999999999992e-10 5.502865416141940609e-09 4.993721934723425581e-09 4.475708363703727848e-09 -4.753461414952980704e+02 -1.896497851287725098e+03 -4.672077194212646418e+02
1.199999999999999992e-10 7.348323006756437133e-09 1.548870984425657473e-09 5.189940831133967162e-09 7.208299146373391864e+01 -8.530587169232084079e+02 3.290752347253662720e+02
1.199999999999999992e-10 8.333081977433178389e-09 4.932358731054974618e-10 6.485671194382732648e-09 -1.234060759343956988e+03 2.238070680606134829e+03 -6.310459375420615515e+02
ITEM: TIMESTEP
4600
ITEM: NUMBER OF ATOMS
10
ITEM: BOX BOUNDS f f f
0 1e-08
0 1e-08
0 1e-08
ITEM: ATOMS radius x y z v_x v_y v_z
1.199999999999999992e-10 3.017508472689525508e-09 2.768337849622022004e-09 4.963616230594921766e-09 -1.037159494218764166e+03 -9.501945340745464819e+01 5.368743153522200373e+02
1.199999999999999992e-10 8.029524926152273468e-09 4.919501980473890895e-09 6.177591484226183149e-09 1.857756426338017661e+02 -1.454082492942446606e+03 -1.312825414115207877e+03
1.199999999999999992e-10 6.283362202702922234e-09 5.977574402331290087e-09 6.370720028962799914e-09 2.372615233945652108e+03 -9.490697987948692571e+02 1.377450929698921072e+03
1.199999999999999992e-10 9.676617492178641754e-09 2.578993023419594653e-09 8.874666782873367418e-09 4.498132197909105798e+02 3.742379594603049213e+02 -1.566815604188046791e+03
1.199999999999999992e-10 5.069993658499464128e-09 9.796687081705674370e-09 6.346044744208726968e-09 6.701991230575507643e+02 -1.077141211673648741e+03 3.044833000809117493e+03
1.199999999999999992e-10 8.564235386714647603e-09 3.028952097678103417e-09 2.347438165127259779e-10 -6.959551032330822409e+02 2.035822456076851722e+03 -3.103141359197927613e+02
1.199999999999999992e-10 9.321904066698868144e-09 3.099565193293773804e-09 4.832380717287869280e-09 -1.065541800484815212e+03 2.461369385311940903e+02 -1.232811708135349818e+03
1.199999999999999992e-10 5.445389304145409989e-09 4.794654503086008174e-09 4.299029411488828580e-09 -4.260641053033020142e+01 -2.361722813904787472e+03 -1.748003319432854596e+03
1.199999999999999992e-10 7.394980807058503272e-09 1.605102525325069933e-09 5.018407806079164525e-09 7.193886593908333680e+02 1.547621853020752042e+03 -3.288482125499363065e+03
1.199999999999999992e-10 8.314791817785410676e-09 5.488072212692198449e-10 6.423715169917548305e-09 -4.158130056315732190e+02 -3.116992974479913983e+02 -1.865147358579828733e+03
ITEM: TIMESTEP
4700
ITEM: NUMBER OF ATOMS
10
ITEM: BOX BOUNDS f f f
0 1e-08
0 1e-08
0 1e-08
ITEM: ATOMS radius x y z v_x v_y v_z
1.199999999999999992e-10 2.997784362602661703e-09 2.839167227970362745e-09 4.961185454964063166e-09 8.914597292705334439e+02 2.745662918010193607e+02 -8.851360000918809874e+02
1.199999999999999992e-10 7.948178931316183051e-09 4.983993002258227471e-09 6.009126452069220442e-09 -7.866356999349793568e+02 2.570224757836038521e+01 -1.127798392357704415e+03
1.199999999999999992e-10 6.268707974580474396e-09 5.806614039106652255e-09 6.390367482692146645e-09 -1.484516982236838885e+03 -4.225377813166726810e+03 -2.011073627884241887e+03
1.199999999999999992e-10 9.702948501340076657e-09 2.593750433302664712e-09 8.839346386797898164e-09 -1.105789131654356368e+02 5.711483860080996777e+01 1.785697853130922681e+02
1.199999999999999992e-10 5.116659182726061035e-09 9.694622072663421573e-09 6.574531693690245366e-09 -1.138251241434386429e+02 2.830137390046011774e+02 1.887013455399382337e+03
1.199999999999999992e-10 8.505700665180310968e-09 3.053916515748173720e-09 2.763764375741977211e-10 -3.692549421553845264e+02 3.001368513492181478e+02 -1.716767560951336122e+02
1.199999999999999992e-10 9.288697063896584534e-09 3.037052635017811498e-09 4.751479129273029700e-09 -2.302526558100587863e+03 -9.295125480198307741e+02 8.242513530813744183e+02
1.199999999999999992e-10 5.245572678615743911e-09 4.677482710038870187e-09 4.097714185130875522e-09 -2.869590120157793990e+03 -1.370154771290470990e+03 -1.356859863050876811e+03
1.199999999999999992e-10 7.610369780529010856e-09 1.621574089712259264e-09 4.897630101431143851e-09 3.795873017905821598e+03 -8.522846794276974833e+02 -1.705398001012759579e+01
1.199999999999999992e-10 8.223151166091466680e-09 4.683804785840829519e-10 6.351889897544348959e-09 -1.311159031567440479e+03 -8.151568021561486148e+02 2.906297964132555762e+02
ITEM: TIMESTEP
4800
ITEM: NUMBER OF ATOMS
10
ITEM: BOX BOUNDS f f f
0 1e-08
0 1e-08
0 1e-08
ITEM: ATOMS radius x y z v_x v_y v_z
1.199999999999999992e-10 3.194972059067457521e-09 2.959836381971111420e-09 4.809559675195204269e-09 2.808073009771273973e+03 2.990313475184278559e+03 -1.283061932962584478e+03
1.199999999999999992e-10 7.913258800363078584e-09 4.938248878294110755e-09 5.837713915163193081e-09 8.630657274561733630e+02 -7.392842901956844344e+02 -3.451852423367805386e+03
1.199999999999999992e-10 6.155845888272653826e-09 5.547488239776159402e-09 6.221447053644180737e-09 -1.619944027713135256e+03 -3.781192965102240464e+02 -1.670584131776835420e+03
1.199999999999999992e-10 9.759289091636720350e-09 2.575610364617609534e-09 8.836796328201796115e-09 -1.626803221943213487e+02 7.933643515603243941e+02 -9.333231974666881570e+02
1.199999999999999992e-10 5.005268002962980194e-09 9.849977697489659071e-09 6.841017675963419846e-09 -1.453696606731760085e+03 2.099210345889329801e+03 2.473427851760686735e+03
1.199999999999999992e-10 8.471103431892901519e-09 3.193663472969060855e-09 2.799107382565351443e-10 1.676365394446946198e+02 1.873264637183864807e+03 -1.019754352953565899e+02
1.199999999999999992e-10 9.127247850658890747e-09 2.910721058176495044e-09 4.645799027112313976e-09 -2.451758754813740779e+03 -1.676866193732713327e+03 -1.361038092031102451e+03
1.199999999999999992e-10 5.048826018116283801e-09 4.663831068638935537e-09 4.163118700689804515e-09 -8.389152155198479477e+02 2.591961872204448127e+02 9.465876568035489527e+02
1.199999999999999992e-10 7.891808604332529514e-09 1.385097413198489410e-09 4.913661527989108379e-09 1.608131547533180765e+03 -2.451506513925670788e+03 1.558502106584534630e+01
1.199999999999999992e-10 7.972874723123974068e-09 1.934364207991091344e-10 6.427258886229273407e-09 -4.157267812729016441e+03 -1.885358292369587389e+03 1.808660163758440149e+03
ITEM: TIMESTEP
4900
ITEM: NUMBER OF ATOMS
10
ITEM: BOX BOUNDS f f f
0 1e-08
0 1e-08
0 1e-08
ITEM: ATOMS radius x y z v_x v_y v_z
1.199999999999999992e-10 3.322433641803437116e-09 2.996362107234674281e-09 4.741310351822214107e-09 -1.915440290110813635e+02 -6.479851124363289046e+02 7.747133988125910946e+02
1.199999999999999992e-10 7.935779620902701823e-09 4.709053616146360311e-09 5.703864028090611703e-09 9.788746773090792885e+02 -3.224440634703035357e+03 2.846581021830032796e+02
1.199999999999999992e-10 6.119739822860016495e-09 5.480526147493048734e-09 6.028085679559679975e-09 6.209761150836137631e+02 -8.883854845752127005e+01 -2.198160226195948781e+03
1.199999999999999992e-10 9.534297491332720558e-09 2.605915965996452939e-09 8.889834214170653372e-09 -3.570804977019409762e+03 -8.144180972785782160e+02 -9.991677109325848960e+00
1.199999999999999992e-10 4.894744185180048190e-09 9.914665248698862871e-09 6.878366356084073644e-09 -1.440754415179915668e+03 1.513600776191126897e+03 9.995612046655862741e+02
1.199999999999999992e-10 8.543863255079923459e-09 3.270993810129131070e-09 3.565808928402990210e-10 1.260525933166419009e+03 8.029918146997160875e+02 2.556352193604050626e+03
1.199999999999999992e-10 9.046641440022741576e-09 2.843937037442516004e-09 4.500979155478998746e-09 -2.433015298611550179e+02 -9.816148492127541658e+02 -8.391531509350032820e+02
1.199999999999999992e-10 4.836937759688620677e-09 4.570609128373104325e-09 4.309241114132973688e-09 -1.397536452590497674e+03 -2.218033320347915833e+03 5.354837297045166906e+02
1.199999999999999992e-10 8.041614831805271348e-09 1.134496960043606753e-09 4.965058886211353183e-09 9.138114428552160007e+02 -2.312264494737294172e+03 1.006550802035137622e+03
1.199999999999999992e-10 7.712530326687096630e-09 1.165136822099839468e-11 6.645427391162152396e-09 -3.388058397061997766e+03 9.462814561537389864e+02 3.637856284458225673e+03
ITEM: TIMESTEP
5000
ITEM: NUMBER OF ATOMS
10
ITEM: BOX BOUNDS f f f
0 1e-08
0 1e-08
0 1e-08
ITEM: ATOMS radius x y z v_x v_y v_z
1.199999999999999992e-10 3.457229745017725720e-09 2.995787318727362057e-09 4.855581816869183563e-09 2.445041431752722019e+03 3.334772611161494069e+02 -1.675128308534609971e+02
1.199999999999999992e-10 7.953343549325734947e-09 4.531990241363363237e-09 5.582928984875628639e-09 1.516548373587887681e+02 2.468953439026413719e+02 -1.535276354022964597e+03
1.199999999999999992e-10 6.325919131630668354e-09 5.418496754493428361e-09 5.900449425615661898e-09 2.576279552087115007e+03 -1.712359865504740810e+03 -7.741674186831719453e+02
1.199999999999999992e-10 9.285095101614581085e-09 2.619880952014589435e-09 8.781409310067013833e-09 -1.538919951139351042e+03 7.846986951429739747e+02 -3.562042030542525026e+03
1.199999999999999992e-10 4.808412887752539724e-09 9.978228283888283624e-09 6.914841640010991931e-09 3.816681238497216668e+02 -3.381020783017102985e+03 -8.021410433030335980e+02
1.199999999999999992e-10 8.680686774632295823e-09 3.326282920026609568e-09 5.585592323205295444e-10 3.819717147013792328e+03 1.605998440861419795e+03 -3.629970010337106601e+02
1.199999999999999992e-10 9.006337656051108062e-09 2.701910544103117093e-09 4.526991618723853128e-09 6.481536925508172544e+02 -3.151686027921952018e+02 -3.293872724691254916e+01
1.199999999999999992e-10 4.755473341896963278e-09 4.454803645627264672e-09 4.304744488757104167e-09 -5.606933208679910194e+02 -1.734831507798373650e+03 2.930421735000508647e+02
1.199999999999999992e-10 8.137562114529636755e-09 1.034059504559704387e-09 4.873061514579197868e-09 1.274506598061878549e+03 -3.073217591524230841e+01 -2.130737073032698845e+03
1.199999999999999992e-10 7.406764893952842450e-09 3.001622297940208947e-10 6.886351047960983898e-09 -3.600710886991793359e+03 3.520429822517955017e+03 1.301467260825681933e+03
ITEM: TIMESTEP
5100
ITEM: NUMBER OF ATOMS
10
ITEM: BOX BOUNDS f f f
0 1e-08
0 1e-08
0 1e-08
ITEM: ATOMS radius x y z v_x v_y v_z
1.199999999999999992e-10 3.585231210530339662e-09 2.882795787063919184e-09 5.019560549596303760e-09 8.937499080404472807e+02 -1.344141415858065102e+03 1.448597660351693548e+03
1.199999999999999992e-10 8.056231963066632790e-09 4.770996452913846972e-09 5.539021979355051306e-09 1.649512527397503618e+03 1.800947856417848243e+03 7.038288962582786326e+02
1.199999999999999992e-10 6.599002707308048991e-09 5.323595733069155956e-09 5.798525269076581116e-09 3.678360317374587339e+03 1.821537209285804011e+03 -8.729274828070774674e+02
1.199999999999999992e-10 9.321295562736234192e-09 2.578969861874760640e-09 8.507832693570873113e-09 1.030831794156940532e+03 -3.110952895288381228e+02 -2.172362960401578675e+03
1.199999999999999992e-10 4.818303959820774424e-09 9.831689271690168888e-09 6.898063787693898816e-09 8.661738950039543852e+02 -5.996606470078045277e+02 2.025546004292073576e+03
1.199999999999999992e-10 8.927135177067862982e-09 3.441179468400032743e-09 6.359247514119344157e-10 7.117638200404561530e+02 8.416983624827201993e+01 -6.187857477367964520e+02
1.199999999999999992e-10 9.087031409776952893e-09 2.664975747387139025e-09 4.556465240593256392e-09 -7.904898543200223457e+02 3.387896340277531522e+02 1.486315272796655790e+03
1.199999999999999992e-10 4.778216873360702462e-09 4.406176956687947198e-09 4.340411205823244679e-09 9.295192595820803945e+02 -9.132191905956572100e+02 -9.450088106163594830e+02
1.199999999999999992e-10 8.170440380820501751e-09 1.112091720915605231e-09 4.770824592628913832e-09 3.789524322763630266e+02 -4.761186495987564058e+02 1.629113064560937403e+02
1.199999999999999992e-10 7.195593149444880473e-09 4.830011635131524712e-10 6.845380493470915304e-09 -8.181334866471427176e+02 1.915190739716029157e+03 -1.813560043380305160e+03
ITEM: TIMESTEP
5200
ITEM: NUMBER OF ATOMS
10
ITEM: BOX BOUNDS f f f
0 1e-08
0 1e-08
0 1e-08
ITEM: ATOMS radius x y z v_x v_y v_z
1.199999999999999992e-10 3.606479999129213051e-09 2.852762904042022690e-09 4.986218961859217563e-09 -9.435292955842662650e+02 7.452355032594659860e+02 -1.703534174898124320e+03
1.199999999999999992e-10 8.153712774652351309e-09 4.901940935352280774e-09 5.582038145989464140e-09 2.162517686159967980e+03 1.470285528890283103e+03 4.331268115616526870e+02
1.199999999999999992e-10 6.840782579001743075e-09 5.481246371475767999e-09 5.634190172629088621e-09 1.675223324971768079e+03 -7.268622579361597218e+02 -1.209341533288862593e+03
1.199999999999999992e-10 9.451373954760137211e-09 2.473517880145647089e-09 8.274802561440932325e-09 1.037622655031193744e+03 -1.292794633845772751e+03 -2.267868529509948075e+03
1.199999999999999992e-10 4.911097986670754442e-09 9.731812577973587035e-09 7.045464564129097262e-09 -8.678089297375497608e+02 7.701423252786571538e+01 1.609203406633089912e+02
1.199999999999999992e-10 8.985362184927907686e-09 3.437754423887493990e-09 5.916334586037192912e-10 5.549792743124780827e+02 -9.508834854739517368e+02 -9.905436951615866974e+02
1.199999999999999992e-10 9.122799174955712872e-09 2.690888103079676774e-09 4.598217556139360887e-09 1.045191685233689441e+03 2.211512283495789575e+02 -8.132402580599655266e+02
1.199999999999999992e-10 4.970329123112877047e-09 4.450421077555129432e-09 4.343819556092055613e-09 1.897435199616680393e+03 2.429614219238215810e+03 -1.966066896583745347e+02
1.199999999999999992e-10 8.133283999064057021e-09 9.703077957366836751e-10 4.768460255183537617e-09 5.493738426063617908e+01 -1.757425725038102428e+03 -1.039376339991092209e+03
1.199999999999999992e-10 7.144129662916874539e-09 6.020894154567321343e-10 6.762426905660207537e-09 -1.172816670771794179e+03 9.459607476519566944e+02 -3.104499810778336411e+01
ITEM: TIMESTEP
5300
ITEM: NUMBER OF ATOMS
10
ITEM: BOX BOUNDS f f f
0 1e-08
0 1e-08
0 1e-08
ITEM: ATOMS radius x y z v_x v_y v_z
1.199999999999999992e-10 3.698553606874210988e-09 2.856638350862208054e-09 4.902716245148812196e-09 9.091962738589406854e+02 -8.310310139913367493e+02 -4.029929898063248856e+02
1.199999999999999992e-10 8.313477504002223798e-09 4.918568537558856851e-09 5.674393897941994373e-09 1.500320634869947526e+03 -2.482190012173365403e+02 9.657028814229229283e+02
1.199999999999999992e-10 6.801149198556620686e-09 5.230626223405392024e-09 5.551093048586893702e-09 -3.058293791785810072e+02 -1.194150868045117477e+03 -5.321884307398732972e+02
1.199999999999999992e-10 9.423436425570445234e-09 2.249380374482458379e-09 7.995428078681329444e-09 -1.029787342237969369e+03 -2.455812992776022838e+03 -1.940618856570087701e+03
1.199999999999999992e-10 4.792680686425296394e-09 9.830218155934303135e-09 7.153197256668268141e-09 -9.188107693629009418e+02 1.612221934375273349e+03 2.619028300884982400e+03
1.199999999999999992e-10 9.149105095004555516e-09 3.469790492134590215e-09 4.485314322081511095e-10 4.108736877316488972e+03 1.527144448787592637e+03 -1.722548783498850980e+03
1.199999999999999992e-10 9.241080568951036918e-09 2.802988262625188533e-09 4.475739837409505039e-09 1.678411187241073094e+03 7.675913733593984034e+02 6.229537174095213459e+02
1.199999999999999992e-10 5.125957049705006961e-09 4.520403188546932108e-09 4.282195860549840314e-09 1.515798763610694550e+03 -9.305395641301993237e+02 -3.186627419154999643e+02
1.199999999999999992e-10 8.142691261271188377e-09 7.669096126793574401e-10 4.636853371476340054e-09 4.132933252921474718e+02 -3.656650007763744270e+03 -1.477915166734138893e+03
1.199999999999999992e-10 7.033341360405690206e-09 7.639884690494384443e-10 6.761812649497374720e-09 -8.643048244003044829e+02 1.687408214170681276e+03 -9.904793046694936720e+01
ITEM: TIMESTEP
5400
ITEM: NUMBER OF ATOMS
10
ITEM: BOX BOUNDS f f f
0 1e-08
0 1e-08
0 1e-08
ITEM: ATOMS radius x y z v_x v_y v_z
1.199999999999999992e-10 3.776023410742206050e-09 2.775719956854607498e-09 4.803850841907845895e-09 1.936241711865947650e+02 -5.938239550514883831e+02 -3.827885853936629701e+02
1.199999999999999992e-10 8.468898333833391316e-09 4.853850042695165694e-09 5.747001650084952912e-09 9.292771661916629000e+02 -5.267367486881391869e+01 -7.948979454717725730e+02
1.199999999999999992e-10 6.512475264781366790e-09 5.125142206191953351e-09 5.720792948254763638e-09 -4.797541220802065254e+03 -7.911488113332536614e+02 1.460605042086399408e+03
1.199999999999999992e-10 9.358799025523954898e-09 2.215442397840941031e-09 7.958806370814381133e-09 -1.081054618842028958e+03 1.270432463178177613e+03 -6.630631549741324307e+02
1.199999999999999992e-10 4.970149592297511398e-09 9.946820612125058648e-09 7.216187885470455318e-09 2.703819109374554500e+03 8.289834776400798546e+02 -1.508691191898579518e+03
1.199999999999999992e-10 9.343202324792485275e-09 3.599398161750526629e-09 2.911650445686635583e-10 8.902379798647444886e+01 2.395171519994453035e+02 -1.482693464194593844e+03
1.199999999999999992e-10 9.458710406818766627e-09 2.924421826603124709e-09 4.488517919121307918e-09 9.890839716726724191e+02 2.776120548198799952e+03 8.139572561119024385e+00
1.199999999999999992e-10 5.126864182231095768e-09 4.445808462866827409e-09 4.017194562537944292e-09 -1.518584054146293056e+03 -8.443434084641573918e+02 -3.659587200294030026e+03
1.199999999999999992e-10 8.237651664605931421e-09 5.011670346059088876e-10 4.488939918897287247e-09 8.931637863506349504e+02 -1.373825595826467179e+03 -1.268532844864634626e+03
1.199999999999999992e-10 7.012485029567721652e-09 8.990001107907279742e-10 6.738687456749948931e-09 8.171073405188586776e+02 1.456092086034568638e+03 -4.124602334907568775e+02
ITEM: TIMESTEP
5500
ITEM: NUMBER OF ATOMS
10
ITEM: BOX BOUNDS f f f
0 1e-08
0 1e-08
0 1e-08
ITEM: ATOMS radius x y z v_x v_y v_z
1.199999999999999992e-10 3.805611266834964741e-09 2.777651206906446698e-09 4.866963833599853024e-09 9.902481126051297906e+02 -2.441754574619504183e+03 7.527874634726174463e+00
1.199999999999999992e-10 8.574257513813850625e-09 4.927312884263800928e-09 5.758740855585192743e-09 4.417830346990201065e+02 1.497057315622672149e+03 -9.422247574876220142e+02
1.199999999999999992e-10 6.352439700030939806e-09 5.015767091454192205e-09 5.975873211872602896e-09 -7.819659272123458322e+02 2.783659312047087155e+02 2.454557418167386913e+03
1.199999999999999992e-10 9.371855384357901831e-09 2.328288220795426764e-09 7.956452959875060691e-09 8.615559769922067517e+02 1.381303641446948859e+03 2.758226686019058889e+02
1.199999999999999992e-10 5.078354250210163076e-09 9.965362473902761015e-09 7.260576715573194922e-09 4.341492288307422314e+02 -4.728720922890344127e+02 1.992594322849803802e+03
1.199999999999999992e-10 9.398273686057350059e-09 3.533287084899559230e-09 1.568720204265552507e-10 5.335117337258734551e+02 -1.468877086350567652e+03 2.976670694558812329e+02
1.199999999999999992e-10 9.614929638444007565e-09 3.154265752308146166e-09 4.388528919458600042e-09 7.737369094015963356e+02 -5.334981148749709234e+01 -7.741812675011831288e+02
1.199999999999999992e-10 4.956434728276616957e-09 4.196316308530829360e-09 3.926407575030640778e-09 -1.509640486631369640e+03 -1.536497075110685955e+03 -7.059131872366217522e+02
1.199999999999999992e-10 8.167408931249698282e-09 2.915188098920312843e-10 4.381332101551675493e-09 -9.134513189368823305e+02 -2.129787496009241295e+03 -3.997418780272258232e+02
1.199999999999999992e-10 7.207323508541046967e-09 9.995815855312461029e-10 6.711554102916265899e-09 2.175227524035187344e+03 1.369171978561173091e+03 3.110204555471549384e+02
ITEM: TIMESTEP
5600
ITEM: NUMBER OF ATOMS
10
ITEM: BOX BOUNDS f f f
0 1e-08
0 1e-08
0 1e-08
ITEM: ATOMS radius x y z v_x v_y v_z
1.199999999999999992e-10 4.029406492267099321e-09 2.573543755189583246e-09 4.902336695798036259e-09 4.121675386138278554e+03 -1.979498409200004744e+03 1.929024893832452562e+03
1.199999999999999992e-10 8.671560161365543749e-09 5.081132708636227412e-09 5.622114873264741793e-09 5.353890631567339824e+02 1.948601022658025613e+03 -2.788631818085457326e+03
1.199999999999999992e-10 6.267572301926818397e-09 5.099328198376735238e-09 6.134072780072446207e-09 8.505279412258626053e+02 9.295657616600733775e+01 1.639154603210520236e+03
1.199999999999999992e-10 9.394841622715693068e-09 2.456980511926311250e-09 7.930941803641821124e-09 1.091319677317289234e+03 1.075768960174782478e+03 -1.311023056679540787e+03
1.199999999999999992e-10 5.058938492838833819e-09 9.950406068452640211e-09 7.305696867377191457e-09 -1.667018050875773042e+03 -2.414381007933179717e+02 1.306616698346333123e+03
1.199999999999999992e-10 9.339075245503390055e-09 3.355487892993006501e-09 1.220331379147433792e-10 -2.076858225641335139e+03 2.433498533293403625e+02 7.312727404980031451e+02
1.199999999999999992e-10 9.705842040751580901e-09 3.171491446388430000e-09 4.401389077795173521e-09 2.499960820246726314e+02 1.364745440819431224e+03 2.726817625660087288e+02
1.199999999999999992e-10 4.975111495573281596e-09 4.106271298036534747e-09 3.886811403320477280e-09 8.310744467259512476e+02 -2.213606894012137673e+03 -5.450751645116864097e+01
1.199999999999999992e-10 8.083439997072371192e-09 1.593069331080899885e-10 4.382213703745048899e-09 -4.420568102812992493e+02 -6.286999137818310146e+02 -5.067249899322274587e+02
1.199999999999999992e-10 7.261180598054434109e-09 1.105158167526685976e-09 6.730921521797965058e-09 -4.599640148001532225e+02 -8.584875032396007555e+01 1.691456878749193038e+03
ITEM: TIMESTEP
5700
ITEM: NUMBER OF ATOMS
10
ITEM: BOX BOUNDS f f f
0 1e-08
0 1e-08
0 1e-08
ITEM: ATOMS radius x y z v_x v_y v_z
1.199999999999999992e-10 4.271193862482602534e-09 2.431791922784924190e-09 5.029827775656999270e-09 1.632343121668910271e+03 -2.065862848294169453e+03 -6.717147760122123827e+02
1.199999999999999992e-10 8.632002001323751804e-09 5.170824861981483731e-09 5.503109438432744224e-09 -1.800219574348046081e+03 -1.627839052825711406e+02 1.109026861353711865e+03
1.199999999999999992e-10 6.176202911036627055e-09 5.169751567893407578e-09 6.259933313730625480e-09 -1.855806594779601710e+03 5.024871503362224985e+02 7.312144576296411742e+02
1.199999999999999992e-10 9.398351219380919804e-09 2.556229811695373825e-09 7.844022017346641863e-09 2.013182162496768797e+02 7.239708105616012972e+02 -3.561364113596888501e+02
1.199999999999999992e-10 5.133375228426405888e-09 9.982005565685454318e-09 7.389592345684009215e-09 2.720998973519852370e+03 -1.748774081461743663e+03 1.502019962505228932e+03
1.199999999999999992e-10 9.294398799722821816e-09 3.391634664676775246e-09 2.147382950360161203e-10 -5.443977993283239130e+02 -1.981546222383575468e+02 1.506783450086314588e+03
1.199999999999999992e-10 9.846188589942898087e-09 3.296616391504387572e-09 4.513920548403222364e-09 1.118278779740625851e+03 2.284945643647453835e+03 1.641939640911967217e+03
1.199999999999999992e-10 5.051706621181232071e-09 4.025138242353133666e-09 3.930662972613267399e-09 -2.044386925224002738e+01 -6.127359676312587453e+02 -2.596512968802229580e+02
1.199999999999999992e-10 8.204390153375000796e-09 1.869752590603895551e-10 4.321322136560433855e-09 1.470893248643338438e+03 2.245077179177857545e+02 -5.165812970935157864e+02
1.199999999999999992e-10 7.325982306435795910e-09 1.076298216549156574e-09 6.804847804660758105e-09 3.621203951423619287e+02 -2.910606416433154209e+03 -1.016623489240407707e+03
ITEM: TIMESTEP
5800
ITEM: NUMBER OF ATOMS
10
ITEM: BOX BOUNDS f f f
0 1e-08
0 1e-08
0 1e-08
ITEM: ATOMS radius x y z v_x v_y v_z
1.199999999999999992e-10 4.427436955598580096e-09 2.347188473723571773e-09 4.864702961283229599e-09 -3.378794190367539727e+02 3.583151500908957132e+01 -3.207859402377946026e+03
1.199999999999999992e-10 8.406690758791787039e-09 5.172773980115483163e-09 5.580915918409374508e-09 -1.711020851930580420e+03 6.232352401713682184e+02 2.032679347930110794e+02
1.199999999999999992e-10 6.059988664170033884e-09 5.160025276251193145e-09 6.359814334437776256e-09 2.271846211843467529e+02 8.509614090472485941e+02 1.270508378923921782e+03
1.199999999999999992e-10 9.521833631914728139e-09 2.586152411909160141e-09 7.903202019704131627e-09 1.153907246359329292e+03 5.212823372042619212e+02 1.297602543578394489e+03
1.199999999999999992e-10 5.211699740144876739e-09 9.907653000642208480e-09 7.499390493514050600e-09 2.170067598242144129e+02 -4.202850267607732349e+02 -1.836335420324408005e+03
1.199999999999999992e-10 9.397517293485339733e-09 3.554688836575382161e-09 1.720701133339564274e-10 1.607780978623004103e+03 2.064346999725294154e+03 -1.524984504803664151e+02
1.199999999999999992e-10 9.905082498088061199e-09 3.697149677158760347e-09 4.617233600810032433e-09 -1.561368778691116006e+02 3.985665810970459916e+03 2.047719089277419755e+02
1.199999999999999992e-10 4.896032588565190972e-09 4.190814851719376610e-09 3.997982722274872003e-09 -2.439130507150773610e+03 1.940236355772278330e+03 3.364079873689249780e+02
1.199999999999999992e-10 8.410758118449491630e-09 1.663392143845645542e-10 4.145929240531932036e-09 2.169466896934644410e+03 8.770353168966688600e+02 -2.913181403252499990e+02
1.199999999999999992e-10 7.523493446428963589e-09 9.704404312959263538e-10 6.721490568880338223e-09 3.183497080445286883e+03 2.219019704444827312e+03 9.413648086806697393e+02
ITEM: TIMESTEP
5900
ITEM: NUMBER OF ATOMS
10
ITEM: BOX BOUNDS f f f
0 1e-08
0 1e-08
0 1e-08
ITEM: ATOMS radius x y z v_x v_y v_z
1.199999999999999992e-10 4.543357769412059156e-09 2.330983894598495454e-09 4.696095728524985335e-09 6.580863741783153955e+02 -6.612057989156804183e+01 9.988370142678056141e+01
1.199999999999999992e-10 8.147223587193326947e-09 5.261114933708329767e-09 5.540005527130916521e-09 -4.184312225847413174e+03 1.759820697373053008e+03 -1.823316907622810959e+03
1.199999999999999992e-10 6.010089434036647613e-09 5.311992841236751867e-09 6.544411577233185648e-09 -2.102389560640126547e+02 1.854927631299076438e+03 -1.910096077267290866e+02
1.199999999999999992e-10 9.515614778660978819e-09 2.685745276469673610e-09 8.097351215048551879e-09 1.030379940689020941e+03 1.362232025968284006e+03 1.355246702866061469e+03
1.199999999999999992e-10 5.260417577079368247e-09 9.875178962289689426e-09 7.366025276055576545e-09 9.535374683068882860e+02 -4.249076991606164029e+02 -2.959269418880086505e+03
1.199999999999999992e-10 9.547739712373250770e-09 3.659352321562547671e-09 8.812645706447411502e-11 4.776764196445720927e+02 -1.695336072024438408e+03 -2.043868527251368960e+03
1.199999999999999992e-10 9.981393888796318372e-09 4.047075951912822078e-09 4.568970722213882418e-09 3.702954539070913142e+01 2.096722843828707937e+03 2.025209630805020140e+02
1.199999999999999992e-10 4.757304866686542027e-09 4.267824644256182820e-09 4.069376521339828765e-09 -2.685479169884437169e+02 -1.003650763424229922e+03 1.072909168020401694e+03
1.199999999999999992e-10 8.404548396605258834e-09 2.472329674330150362e-10 4.126495092327074145e-09 5.460772315339139595e+02 1.079974508985426837e+03 -2.393538855513882481e+03
1.199999999999999992e-10 7.634114764835577014e-09 1.120146830227992325e-09 6.794959967273563014e-09 3.549312191478843488e+02 1.160134977438526221e+03 1.806348368166658020e+03
ITEM: TIMESTEP
6000
ITEM: NUMBER OF ATOMS
10
ITEM: BOX BOUNDS f f f
0 1e-08
0 1e-08
0 1e-08
ITEM: ATOMS radius x y z v_x v_y v_z
1.199999999999999992e-10 4.482714579284140376e-09 2.363637398918398811e-09 4.579597880349659018e-09 -3.550009367108971219e+03 1.719485492707123740e+03 -2.247013856956385098e+03
1.199999999999999992e-10 7.783567529873146264e-09 5.474939483734028402e-09 5.513857696568767876e-09 -3.306104870821591248e+03 3.070103695300559139e+03 2.091782486989770405e+03
1.199999999999999992e-10 6.152628219850536747e-09 5.501788410117881956e-09 6.437311936998579627e-09 1.895687933200144926e+02 2.176302713355787091e+03 -1.718026098587620027e+03
1.199999999999999992e-10 9.480509505673403330e-09 2.776932279630953853e-09 8.302050877184378607e-09 -7.408664015465823240e+02 1.962844676315960896e+03 1.536732694129137371e+03
1.199999999999999992e-10 5.432385159958158353e-09 9.768000591400690283e-09 7.268553478163366924e-09 1.365079951972713616e+03 -1.393069410588032042e+03 7.671038547846255824e+02
1.199999999999999992e-10 9.502669288673895232e-09 3.364601704540594423e-09 4.107986409410393833e-11 -1.881200746310907334e+03 -2.931786151159183646e+03 -1.534219674955694700e+03
1.199999999999999992e-10 9.879840397418220621e-09 4.106983811820203113e-09 4.636261202194955027e-09 -9.198859716990691595e+02 1.623703513440983897e+03 1.515823059730696514e+03
1.199999999999999992e-10 4.613910047862611060e-09 4.141987148375964876e-09 4.053991652058415883e-09 -2.073040098497025610e+03 -1.165280982629376922e+03 -1.208308353934215347e+03
1.199999999999999992e-10 8.402132433967072281e-09 4.880270081540288352e-10 3.982011599899747444e-09 7.901545480446051783e+01 3.307558810574033942e+03 -2.227858556219470756e+03
1.199999999999999992e-10 7.605140488728801629e-09 1.291664750591195216e-09 6.925308119109076275e-09 -2.335614595028600320e+02 1.160059398973901125e+03 -2.411305266644284302e+02
ITEM: TIMESTEP
6100
ITEM: NUMBER OF ATOMS
10
ITEM: BOX BOUNDS f f f
0 1e-08
0 1e-08
0 1e-08
ITEM: ATOMS radius x y z v_x v_y v_z
1.199999999999999992e-10 4.276021585145019044e-09 2.368912148684855312e-09 4.450943141612745629e-09 -9.174322318715903748e+02 -1.126127086344955188e+02 -1.039830834922438044e+03
1.199999999999999992e-10 7.576232398514063445e-09 5.673516459257673660e-09 5.656985568285761485e-09 -2.107814547364149803e+03 1.502513406480274625e+03 -7.938474730869131690e+00
1.199999999999999992e-10 6.353712750564706713e-09 5.634140007163314772e-09 6.402747313926187809e-09 2.318354205536286372e+03 1.224366817810157784e+02 1.128129940548604964e+02
1.199999999999999992e-10 9.484469002542063042e-09 2.859033128869887117e-09 8.422123956342380759e-09 1.411465249964300938e+03 -4.622567699777221151e+01 9.027643093470306894e+02
1.199999999999999992e-10 5.441849627942369601e-09 9.843348205813095482e-09 7.310300905831338513e-09 -7.237720884282433644e+02 1.700237966614309471e+03 -1.793606082523857026e+01
1.199999999999999992e-10 9.396766899626408687e-09 3.208269302549613333e-09 7.334220087062055075e-11 1.314642413780779862e+03 7.325103384881911097e+02 1.056088956065975026e+03
1.199999999999999992e-10 9.905428769433755050e-09 4.168659317125301932e-09 4.835011336455505028e-09 1.071195580353038849e+03 2.132020130510079525e+02 1.369758280973903538e+03
1.199999999999999992e-10 4.733691747729824892e-09 4.045651202874857072e-09 3.922536507638633387e-09 8.763069855741779293e+02 -9.597996042910405095e+02 -1.871110834391907247e+03
1.199999999999999992e-10 8.364247429092875967e-09 7.667353584528506785e-10 3.769950047872511947e-09 7.259139396697721622e+02 3.603654519755409183e+03 -1.244991066543668694e+03
1.199999999999999992e-10 7.692656028428674972e-09 1.297265169829716598e-09 6.793696795184915102e-09 5.313040013479379695e+02 9.214700718702408722e+01 -2.634053318704020057e+03
ITEM: TIMESTEP
6200
ITEM: NUMBER OF ATOMS
10
ITEM: BOX BOUNDS f f f
0 1e-08
0 1e-08
0 1e-08
ITEM: ATOMS radius x y z v_x v_y v_z
1.199999999999999992e-10 4.240455724611870662e-09 2.415139658200948064e-09 4.403226007584678637e-09 -1.136326875340208971e+03 4.850133789502176569e+02 2.825486518922622281e+01
1.199999999999999992e-10 7.688203558114427029e-09 5.748192974824579287e-09 5.631357632717243924e-09 2.170668679199624421e+03 2.707510382982520241e+03 1.087561424145768143e+02
1.199999999999999992e-10 6.482537876906445733e-09 5.770394520859608821e-09 6.468809836074716797e-09 2.541283546553980614e+03 2.536541037239024718e+03 7.008165725619501245e+02
1.199999999999999992e-10 9.427709768933905551e-09 2.792287622867381297e-09 8.584997524163022328e-09 -2.512009569913956966e+03 -2.649964868241703471e+02 3.829578455138948357e+03
1.199999999999999992e-10 5.561308139961784345e-09 9.971969122014877613e-09 7.373208674008380028e-09 2.061050477261770538e+03 -3.570760896788859554e+03 7.113466863590124944e+01
1.199999999999999992e-10 9.498314956469379961e-09 3.256736608208281360e-09 7.216964453125890292e-11 2.870739726479449416e+00 7.705166238629294639e+02 8.100820549829451238e+02
1.199999999999999992e-10 9.959956018517072016e-09 4.301734795314462792e-09 4.873196504217386770e-09 -1.730145117209943351e+02 5.192346893805173522e+02 -6.020909991654967826e+02
1.199999999999999992e-10 4.828754223503973966e-09 4.095478114612161879e-09 3.785584413512713948e-09 8.920378285913009222e+02 2.740163661372299430e+03 -1.174489957623069586e+03
1.199999999999999992e-10 8.552566569409588454e-09 8.462129994826489246e-10 3.626591601480375031e-09 1.624309049959608274e+03 -1.851586120366361911e+03 -5.864545620922102671e+02
1.199999999999999992e-10 7.852662951741987943e-09 1.240000240419493577e-09 6.683489047738974332e-09 3.114041227914247429e+03 -6.775578815642038535e+02 5.389741627050415218e+01
ITEM: TIMESTEP
6300
ITEM: NUMBER OF ATOMS
10
ITEM: BOX BOUNDS f f f
0 1e-08
0 1e-08
0 1e-08
ITEM: ATOMS radius x y z v_x v_y v_z
1.199999999999999992e-10 4.333591908316579664e-09 2.426797695137069726e-09 4.388872190354717792e-09 -2.270433772132498973e+02 -6.634940000656667962e+02 -1.699048994325113142e+02
1.199999999999999992e-10 7.787480167472147844e-09 5.981097070166522967e-09 5.578116393137517170e-09 -1.851700405334363950e+03 2.389930356047014357e+03 -1.137759328012082278e+03
1.199999999999999992e-10 6.615649836550538260e-09 5.863832335608575145e-09 6.486953460643454210e-09 7.235196710424339699e+02 1.223537602336460395e+03 1.728689650126370623e+02
1.199999999999999992e-10 9.313159692747781693e-09 2.723591670560511951e-09 8.657782920739331177e-09 1.241530185942932576e+03 -1.921266983042427682e+03 -1.917206307471044511e+03
1.199999999999999992e-10 5.601413465995158686e-09 9.757631580975890262e-09 7.317907434247614157e-09 -1.279170510160957292e+03 -1.668789519482794276e+03 7.890204721204706857e+02
1.199999999999999992e-10 9.324300668713730876e-09 3.288071782326661644e-09 1.054513571415269675e-10 -3.052123770697262898e+03 -1.227708868347310499e+03 2.222217015903406264e+03
1.199999999999999992e-10 9.928413920845528030e-09 4.308727161344255797e-09 4.817466473069709133e-09 -3.276724730011751944e+03 1.525901585078672724e+03 -6.163722832843219521e+02
1.199999999999999992e-10 4.925869003785542609e-09 4.254851259857723563e-09 3.767093041998162265e-09 1.939996836980618582e+03 5.837524414070317107e+02 -1.386554499561053944e+03
1.199999999999999992e-10 8.567642077929131581e-09 8.065573189409568444e-10 3.665420901106116071e-09 -1.829366907927207649e+03 -1.258450809618600942e+03 9.280319921225499229e+02
1.199999999999999992e-10 8.122857833607081390e-09 1.284516852933215803e-09 6.597325126947184095e-09 2.726521641386247211e+03 1.325362306073802984e+03 -9.496323686329734528e+02
ITEM: TIMESTEP
6400
ITEM: NUMBER OF ATOMS
10
ITEM: BOX BOUNDS f f f
0 1e-08
0 1e-08
0 1e-08
ITEM: ATOMS radius x y z v_x v_y v_z
1.199999999999999992e-10 4.417397156681503409e-09 2.571456481933050124e-09 4.474612371350408466e-09 -4.972344390243230237e+02 8.801070254753058180e+02 1.410700719830174876e+03
1.199999999999999992e-10 7.597647702664993759e-09 6.215180581581263001e-09 5.519486635248119789e-09 -2.277361261588844627e+03 3.331512549632919672e+03 1.300661555596096605e+03
1.199999999999999992e-10 6.564945897917038962e-09 6.041260919640489361e-09 6.570106248728527667e-09 -2.504211253306428262e+03 -1.061676935468759666e+02 2.105951911000659038e+02
1.199999999999999992e-10 9.363087347782293787e-09 2.831336728985110990e-09 8.564409309601622607e-09 1.765632414980979775e+03 1.878672270793243342e+03 -1.072090825121345461e+03
1.199999999999999992e-10 5.579236760910201318e-09 9.803322490003251381e-09 7.524315042447371583e-09 -4.308416859090131084e+02 7.624084965349044296e+02 1.424751107052862608e+03
1.199999999999999992e-10 9.155300220208007139e-09 3.106473580944105229e-09 3.570887133352546785e-10 -1.291533952816726924e+03 -7.000863684639316489e+02 2.498120889841846690e+02
1.199999999999999992e-10 9.747122343753209425e-09 4.490819747776277053e-09 4.579091185716333819e-09 -1.085094591246839855e+03 1.046235053852834881e+03 -2.924494587564303856e+03
1.199999999999999992e-10 5.141321545339312322e-09 4.215261179860740074e-09 3.622222105334512768e-09 1.805503262832645760e+03 -4.919028375554718195e+02 1.141975838965589446e+03
1.199999999999999992e-10 8.425346217198624003e-09 7.833884584769409646e-10 3.586106831776056739e-09 -1.353501997540770844e+03 1.065557041336574684e+03 -1.936538548408007728e+03
1.199999999999999992e-10 8.434705215260049049e-09 1.203363508715217273e-09 6.462343467389350353e-09 4.369924351537005350e+03 -1.572417262125763273e+03 4.810789593304403411e+02
ITEM: TIMESTEP
6500
ITEM: NUMBER OF ATOMS
10
ITEM: BOX BOUNDS f f f
0 1e-08
0 1e-08
0 1e-08
ITEM: ATOMS radius x y z v_x v_y v_z
1.199999999999999992e-10 4.593136646675494002e-09 2.827775769421383755e-09 4.542075414142364294e-09 1.359629895294678590e+03 1.219330887167721130e+03 7.700035554352315330e+02
1.199999999999999992e-10 7.414730360494806669e-09 6.477923612524396053e-09 5.742398771186655566e-09 8.897497918829418495e+01 3.343973290501290194e+03 3.302542797552651791e+03
1.199999999999999992e-10 6.395823757107995989e-09 6.077682489252566809e-09 6.580184720742421745e-09 -6.256879648232898035e+02 1.428422748297308317e+03 1.147514584758007686e+03
1.199999999999999992e-10 9.330103205372246555e-09 2.891716857067682459e-09 8.590219279753182783e-09 -2.181526160755182445e+03 -1.745519712363287908e+03 1.224936694006715925e+03
1.199999999999999992e-10 5.559620211163581922e-09 9.931157385931762395e-09 7.633674145555663048e-09 -1.407571887027612547e+03 -3.932355264985358190e+03 9.706722843131228728e+02
1.199999999999999992e-10 8.991416321163208780e-09 3.090263645275575263e-09 3.539958320505355043e-10 -6.176534061162500393e+02 4.723287578890138150e+01 -9.773182171302058805e+02
1.199999999999999992e-10 9.881683352590232930e-09 4.585830075782826874e-09 4.442390511018505418e-09 3.922909641611366169e+03 9.789487465795764365e+02 -1.081718792213342567e+03
1.199999999999999992e-10 5.145909788749577292e-09 4.193476486871936853e-09 3.723688122155391027e-09 -1.125778146621929409e+03 -3.002512488998170852e+02 1.343486546197578264e+03
1.199999999999999992e-10 8.297250272782847988e-09 1.033859658647814595e-09 3.434305342074175886e-09 1.329780680161516329e+03 3.196553902393073258e+03 -2.684510693490399262e+02
1.199999999999999992e-10 8.810075163417755389e-09 1.197834719112592288e-09 6.643529647902566514e-09 4.351499962054474963e+03 3.332339897056222071e+03 -3.364681118250917962e+02
ITEM: TIMESTEP
6600
ITEM: NUMBER OF ATOMS
10
ITEM: BOX BOUNDS f f f
0 1e-08
0 1e-08
0 1e-08
ITEM: ATOMS radius x y z v_x v_y v_z
1.199999999999999992e-10 4.626411541189973950e-09 2.923901289605931945e-09 4.641900529652092333e-09 -1.279970331149621870e+03 2.055051200780463660e+03 1.602689852924491561e+03
1.199999999999999992e-10 7.249451711280300216e-09 6.598644281959182568e-09 5.923900383153568827e-09 -2.610096366270657654e+03 -7.072583222585086560e+02 1.608301964213861083e+03
1.199999999999999992e-10 6.305343255416228379e-09 6.149023478058895502e-09 6.646131192044167824e-09 -1.204171723042868507e+03 1.171323907904839871e+03 -1.346962822498456262e+03
1.199999999999999992e-10 9.079576780910939595e-09 2.746005326548041913e-09 8.759815295799907103e-09 -2.026770876135652088e+03 -2.768784259610989693e+02 1.092114542094931494e+03
1.199999999999999992e-10 5.698186055341604552e-09 9.675603591168398853e-09 7.693804188317504601e-09 9.639037133272197480e+02 -3.034012811792534649e+03 7.896656084920440435e+02
1.199999999999999992e-10 8.912999621936303768e-09 3.081649364772920276e-09 4.130226144163900112e-10 -9.792457976879408079e+02 -1.341868594267319622e+03 2.864539706560924969e+03
1.199999999999999992e-10 9.910661586668925505e-09 4.786111545992431328e-09 4.428501909834888327e-09 -7.225151108386814940e+02 3.027045901983738077e+03 -8.630000366446433873e+02
1.199999999999999992e-10 5.029708990000762085e-09 4.265229413707580486e-09 3.811880603927865131e-09 -3.217765798295816694e+03 1.876679268341784791e+03 -9.236096063220898600e+01
1.199999999999999992e-10 8.140250029285852189e-09 1.153806033953945937e-09 3.362493608013502381e-09 -2.693908222586477677e+03 7.436385084337514400e+02 -1.731345901606133793e+03
1.199999999999999992e-10 9.013057667974633441e-09 1.568571373316252683e-09 6.630374920545938919e-09 1.713913523380528659e+03 4.933542124847030209e+03 9.050518099988244103e+02
ITEM: TIMESTEP
6700
ITEM: NUMBER OF ATOMS
10
ITEM: BOX BOUNDS f f f
0 1e-08
0 1e-08
0 1e-08
ITEM: ATOMS radius x y z v_x v_y v_z
1.199999999999999992e-10 4.552092913996041381e-09 2.941572409803552039e-09 4.815827633553777906e-09 1.242029134898294387e+03 6.715210204033617174e+02 2.032530585779419710e+02
1.199999999999999992e-10 7.048071799527923265e-09 6.499729093682494899e-09 6.021572541783009796e-09 1.145744610437110623e+03 -4.331167863345610272e+02 6.112918288167782066e+01
1.199999999999999992e-10 6.197340446029531574e-09 6.015085674548300681e-09 6.517258681922388221e-09 -6.470217600536036571e+02 -1.836744821487847275e+03 1.005736323812665887e+03
1.199999999999999992e-10 9.037454531669242792e-09 2.704358673181197696e-09 8.791564160919122677e-09 -1.238982826159740853e+03 -2.045390272731292953e+03 -2.447954056229782509e+02
1.199999999999999992e-10 5.743872869412392092e-09 9.459208512974270821e-09 7.769038525162194640e-09 1.324297322004066473e+03 -5.175604632501997457e+02 9.864682570135055357e+02
1.199999999999999992e-10 8.940387676799112933e-09 3.037852903261552789e-09 6.406715248147635429e-10 7.444340694718138138e+02 -4.525830679568309733e+01 8.450985447397703183e+02
1.199999999999999992e-10 9.728805052782928925e-09 5.022487205139054801e-09 4.378830677880457208e-09 -3.458150555363723015e+03 2.084392601947301955e+03 2.127727897069992196e+02
1.199999999999999992e-10 4.828430091208504496e-09 4.210894090387876512e-09 3.748634315949546267e-09 1.377857006940884048e+03 -2.066411874621704555e+03 -1.360465403320283713e+03
1.199999999999999992e-10 8.170135260284979080e-09 1.122204094379295099e-09 3.103374726299356465e-09 -7.007553214960277046e+02 -1.019440213190597092e+03 -2.392770069231763046e+03
1.199999999999999992e-10 9.140093223635922731e-09 1.929418879414278906e-09 6.724864198314245175e-09 1.239764331345908886e+03 3.697944321258766649e+03 6.437480677801058846e+02
ITEM: TIMESTEP
6800
ITEM: NUMBER OF ATOMS
10
ITEM: BOX BOUNDS f f f
0 1e-08
0 1e-08
0 1e-08
ITEM: ATOMS radius x y z v_x v_y v_z
1.199999999999999992e-10 4.709090787251811036e-09 2.987406168515614284e-09 4.799866957166660309e-09 2.372540940728994883e+03 -1.035816554938147647e+03 -1.521737831103202438e+02
1.199999999999999992e-10 7.066939681812427811e-09 6.369728885134664158e-09 5.938378221064231812e-09 -2.039569680232982023e+02 -1.581714088669293460e+03 -5.121834234257369189e+01
1.199999999999999992e-10 5.986681452973350650e-09 5.758460747205616611e-09 6.704475927709430031e-09 -1.428652171479836397e+03 -2.236204480508103188e+03 2.180928311240880703e+03
1.199999999999999992e-10 8.951244893321273122e-09 2.607425421876227432e-09 8.829403939060703231e-09 2.843501141148734632e+02 1.942378234132345938e+01 -1.762527862856379897e+03
1.199999999999999992e-10 5.908853381524394693e-09 9.424760523742372995e-09 7.884957380666296409e-09 9.406595379699195973e+02 -5.858488323058484184e+02 -4.419004780577174643e+02
1.199999999999999992e-10 9.045956279319341229e-09 2.873223205972267925e-09 5.766261456218522520e-10 -2.402070876214370401e+02 -2.213339361364018259e+03 1.308490053021630047e+03
1.199999999999999992e-10 9.538203589956221954e-09 5.146644612005520472e-09 4.369228450646360729e-09 -1.608514876295656904e+03 -1.558162775196307393e+03 1.636637475096074468e+03
1.199999999999999992e-10 4.812079545645816437e-09 4.053088747611685683e-09 3.637867096654310308e-09 -1.038687183905393567e+03 -2.158837547705497400e+03 1.909448911413255132e+02
1.199999999999999992e-10 8.222295387729191489e-09 8.521495564667427881e-10 2.889191830030782815e-09 2.386565017689287743e+03 -2.419262930473079905e+03 -9.172093264160231456e+02
1.199999999999999992e-10 9.291396982995861006e-09 2.154789144484304977e-09 6.880809538104042025e-09 1.512797077197715907e+03 2.061142853680643384e+03 -1.491075801411267321e+01
ITEM: TIMESTEP
6900
ITEM: NUMBER OF ATOMS
10
ITEM: BOX BOUNDS f f f
0 1e-08
0 1e-08
0 1e-08
ITEM: ATOMS radius x y z v_x v_y v_z
1.199999999999999992e-10 4.840363901103498667e-09 2.826191645997305118e-09 4.738233358860198635e-09 1.173771878968554347e+03 -2.434417501001886649e+03 9.418620651861264150e+02
1.199999999999999992e-10 6.998175926980514679e-09 6.219881874957355954e-09 5.963009790080525374e-09 -2.150364990737785320e+03 -1.322505292665857723e+03 -1.364825970668218247e+01
1.199999999999999992e-10 5.739477349238050952e-09 5.682727935214444799e-09 6.750657021132363827e-09 -1.692292507199566444e+03 -2.479363772447836254e+03 1.198248221963759079e+03
1.199999999999999992e-10 9.079130251799242668e-09 2.563196776455666450e-09 8.785601510748711203e-09 1.052188805789233584e+03 1.945673974542646363e+02 8.464298443192597006e+02
1.199999999999999992e-10 5.942745525876957238e-09 9.351993750789972829e-09 7.851772730969966493e-09 -2.298382124906234367e+03 -3.672076721018394210e+02 -2.855598801851269286e+01
1.199999999999999992e-10 9.046503301758323305e-09 2.751889316861054268e-09 6.188415875091920390e-10 2.046140311750087903e+02 -1.139157593412819551e+03 2.771050585356927627e+02
1.199999999999999992e-10 9.556230139512368340e-09 5.133174308760946656e-09 4.549419774793327396e-09 7.563136982615030774e+02 -6.917983667150783731e+02 1.305679522841340258e+03
1.199999999999999992e-10 4.770423800756151570e-09 4.055193124774090044e-09 3.563422070367414193e-09 -1.442226609133483919e+02 7.542389947225564129e+02 -1.437278682132427093e+03
1.199999999999999992e-10 8.295653098757533925e-09 5.814226175710658483e-10 2.809204282957020368e-09 -3.818925921094229352e+02 -1.952569829741500598e+03 -2.625945323231781458e+03
1.199999999999999992e-10 9.343178721522217546e-09 2.379069300367534461e-09 6.886068343969246881e-09 1.333392276356902812e+03 4.789288512959942636e+03 -3.037038994211465024e+02
ITEM: TIMESTEP
7000
ITEM: NUMBER OF ATOMS
10
ITEM: BOX BOUNDS f f f
0 1e-08
0 1e-08
0 1e-08
ITEM: ATOMS radius x y z v_x v_y v_z
1.199999999999999992e-10 4.873399456665207110e-09 2.722441768770704336e-09 4.825881496106360715e-09 1.823361341883424416e+02 8.990511637938919876e+01 -1.719009596874390695e+02
1.199999999999999992e-10 6.886640672949678914e-09 6.061442510675387099e-09 5.885342029410620178e-09 -4.222777443359503309e+02 -2.312370686046143874e+03 2.562235313432614134e+02
1.199999999999999992e-10 5.531517973112990213e-09 5.546498182717522389e-09 6.836634165996776668e-09 -1.526325876904460074e+03 -8.940812152821624750e+02 -5.372430156603491014e+02
1.199999999999999992e-10 8.914221229434466700e-09 2.601152107821110260e-09 8.817629841384267307e-09 -1.090738377475553079e+03 -8.386946132306660502e+02 3.768311646665248418e+02
1.199999999999999992e-10 5.896358937239636184e-09 9.346812921947268038e-09 7.918279393441359260e-09 1.207899157794306802e+03 8.017130219167679570e+02 6.654945855669643606e+02
1.199999999999999992e-10 8.929716140195243806e-09 2.736458034926060717e-09 8.494905535444593083e-10 -2.465610208798158055e+03 2.948494061252991116e+01 2.554095489915543567e+03
1.199999999999999992e-10 9.696121266369839181e-09 4.962132902017688936e-09 4.780647233194288935e-09 3.059625941136221172e+03 -1.480081974010603744e+03 2.888518531221277044e+03
1.199999999999999992e-10 4.703839926787829442e-09 3.949617758111944747e-09 3.364121517233650685e-09 -1.654912674394827263e+03 -2.450243571129266002e+03 -2.453019942746266679e+03
1.199999999999999992e-10 8.226575219153057779e-09 4.292824988516764005e-10 2.561118261544580757e-09 -6.547863016329488346e+02 -7.318603193855828977e+02 -1.538531179246711872e+03
1.199999999999999992e-10 9.449348695958676195e-09 2.668475607904038849e-09 6.933048813940502771e-09 3.547807105469299813e+02 -9.543387906342923088e+01 1.635195972164364093e+02
ITEM: TIMESTEP
7100
ITEM: NUMBER OF ATOMS
10
ITEM: BOX BOUNDS f f f
0 1e-08
0 1e-08
0 1e-08
ITEM: ATOMS radius x y z v_x v_y v_z
1.199999999999999992e-10 4.664889152136394260e-09 2.628490107165149225e-09 4.683090296372432820e-09 -4.067163629788703929e+03 5.342927302014635416e+02 -1.955483942232402569e+03
1.199999999999999992e-10 6.832866187429918803e-09 5.744402128789471954e-09 5.917153324125234797e-09 -6.388171533653863321e+01 -2.853404741752015070e+03 -7.959341011147251947e+02
1.199999999999999992e-10 5.471008094128949868e-09 5.458261369569422124e-09 6.757643442603104987e-09 -1.662447691125152687e+03 -1.108162356044298804e+03 -7.733761219405320162e+02
1.199999999999999992e-10 8.677780644405427199e-09 2.535447342057040303e-09 8.778074923692121968e-09 -1.348107495872704021e+03 -5.680490772177197414e+02 -1.290416198750189949e+02
1.199999999999999992e-10 5.956526879707480877e-09 9.265391663230670044e-09 8.025824822501948660e-09 8.320988292549044445e+02 3.033385885488604572e+01 2.341078654301956703e+03
1.199999999999999992e-10 8.772221594050500365e-09 2.858053342663674662e-09 1.120309553508945542e-09 -1.587266552030248704e+03 8.399298761105999347e+02 2.207554274399039514e+03
1.199999999999999992e-10 9.987650455998478963e-09 4.967227779134527600e-09 4.907238271059531562e-09 -2.812378523816717916e+03 1.326122050483304065e+03 1.220936979468524157e+02
1.199999999999999992e-10 4.526384288793459179e-09 3.585065636683528856e-09 3.177063492663028390e-09 -1.858202282226430498e+03 -4.558418183194684389e+03 -4.541343659583471037e+01
1.199999999999999992e-10 8.161274711608367477e-09 3.596995962462694612e-10 2.490003229970132989e-09 -4.843600641492628256e+00 -2.808569626839881948e+03 -2.984125477052946849e+02
1.199999999999999992e-10 9.387206683544965221e-09 2.728073877717579547e-09 7.000762533413795096e-09 1.539998860285082287e+02 1.408402145816521852e+03 4.170643379049536179e+02
ITEM: TIMESTEP
7200
ITEM: NUMBER OF ATOMS
10
ITEM: BOX BOUNDS f f f
0 1e-08
0 1e-08
0 1e-08
ITEM: ATOMS radius x y z v_x v_y v_z
1.199999999999999992e-10 4.453016815684391426e-09 2.794203037060966512e-09 4.640431229813013517e-09 -3.910189495382979885e+02 5.655733381212068025e+02 -1.815403728583760540e+03
1.199999999999999992e-10 6.842126481749134888e-09 5.459339487682733225e-09 5.837819424228617509e-09 1.205649547771259677e+03 -1.867017533890778623e+03 -1.952487326218462613e+03
1.199999999999999992e-10 5.357670192064370652e-09 5.418968835641634730e-09 6.644821887054255731e-09 -1.129760307245347349e+03 -3.036177723959362993e+02 -2.079972279597702254e+03
1.199999999999999992e-10 8.467721653787795584e-09 2.464936049862256180e-09 8.792631188049120779e-09 3.252026720310043402e+02 -6.903323988699681877e+02 -1.247139847091884235e+02
1.199999999999999992e-10 6.018544097564647354e-09 9.144109807898927283e-09 7.937343326657109986e-09 -7.053763342620509320e+02 -1.833179742153604820e+03 -2.882002709886807224e+03
1.199999999999999992e-10 8.798002210091568209e-09 2.839605920775011057e-09 1.248016037214556903e-09 1.092483380092031894e+03 3.072279838852214766e+02 2.295481982571881417e+03
1.199999999999999992e-10 9.672408707241929969e-09 5.103463471378108981e-09 4.780774422516484084e-09 -1.311719474016804952e+03 1.003650742597077965e+03 -9.223357059547917061e+02
1.199999999999999992e-10 4.463961840279218835e-09 3.164443454455321076e-09 3.095242103990611685e-09 8.918376024892901341e+02 -3.396525499546038645e+03 -3.114734465563682534e+03
1.199999999999999992e-10 8.065489687049276867e-09 2.017065679305855655e-10 2.535225642905060542e-09 -2.842091376004528229e+03 -1.540221111657028587e+03 -6.025070822099797851e+01
1.199999999999999992e-10 9.504193048695698069e-09 2.813554105336409448e-09 6.973419260323157243e-09 1.107552958415842113e+03 -5.026430950373087398e+02 8.591512884591569446e+02
ITEM: TIMESTEP
7300
ITEM: NUMBER OF ATOMS
10
ITEM: BOX BOUNDS f f f
0 1e-08
0 1e-08
0 1e-08
ITEM: ATOMS radius x y z v_x v_y v_z
1.199999999999999992e-10 4.593717823745936561e-09 2.808425061708878948e-09 4.650441218164907232e-09 3.065796756114346863e+03 -3.889523854210179934e+02 1.922095282089669126e+03
1.199999999999999992e-10 6.860546641320872377e-09 5.473208479321216639e-09 5.584404382287225469e-09 4.967569518727093509e+02 1.348878571281897166e+03 -7.825049582377178012e+02
1.199999999999999992e-10 5.408731341202878156e-09 5.442042968458690534e-09 6.632051815359465382e-09 2.344838130038359395e+03 6.465906807670780836e+02 1.056606723511021301e+03
1.199999999999999992e-10 8.569640508628921033e-09 2.530502813719598575e-09 8.919882308938616603e-09 6.274757871687552324e+01 1.880813986489596346e+03 1.077842972563462354e+03
1.199999999999999992e-10 6.019046262386262728e-09 9.041865129965602875e-09 7.742085566265139332e-09 -9.130668261131441454e+01 -1.870911286598030188e+00 -1.361929924386234461e+03
1.199999999999999992e-10 8.871637372217686786e-09 2.953031785446464198e-09 1.347891579279538500e-09 -3.488709271133241714e+02 1.026479203209432626e+03 6.769905271674233518e+02
1.199999999999999992e-10 9.749821831784531565e-09 5.076956863473939250e-09 4.676676851300504788e-09 1.582781227513960403e+03 -1.294302223151614726e+03 -1.301064294542337848e+03
1.199999999999999992e-10 4.698541051615116172e-09 3.099118202290743314e-09 2.920957065597994371e-09 1.328386080225640626e+03 3.093326561331570247e+03 -3.289708770882003591e+03
1.199999999999999992e-10 7.792064293881062320e-09 5.838982316719388072e-11 2.428806213428797935e-09 -1.994989765266876248e+03 -3.325256427604859255e+03 -1.366801684451938399e+03
1.199999999999999992e-10 9.590183774332052099e-09 2.841821087749755761e-09 7.060792590285718662e-09 6.092558644600824209e+02 -3.304233932606015856e+02 -4.655098623362991930e+02
ITEM: TIMESTEP
7400
ITEM: NUMBER OF ATOMS
10
ITEM: BOX BOUNDS f f f
0 1e-08
0 1e-08
0 1e-08
ITEM: ATOMS radius x y z v_x v_y v_z
1.199999999999999992e-10 4.763830437226125477e-09 2.814326731602134956e-09 4.787005293815845691e-09 3.041932707250510703e+03 7.382318555251245584e+01 2.346536242360365122e+03
1.199999999999999992e-10 6.934914521830728814e-09 5.532090735551612565e-09 5.667496413789759880e-09 2.263045748238613669e+03 8.913698155059108785e+01 9.610456478531762059e+02
1.199999999999999992e-10 5.557675667675583320e-09 5.428850214254193436e-09 6.889547261367936135e-09 2.354776901997828645e+03 -5.425884980993312183e+02 4.032246081610784586e+03
1.199999999999999992e-10 8.500741710896403758e-09 2.698852382585586161e-09 9.015126645089139378e-09 -1.053917958448186255e+03 1.322585921677935858e+03 3.950711950100238710e+02
1.199999999999999992e-10 5.930593932089924987e-09 9.030417511003490230e-09 7.587715305000349905e-09 -5.212386444352976014e+02 9.402265807050913509e+02 4.094973423060305890e+02
1.199999999999999992e-10 8.754678424769239894e-09 2.991985166011977718e-09 1.412495028376662618e-09 -4.449575911123537253e+02 1.472578815724122023e+02 4.746577506507420594e+02
1.199999999999999992e-10 9.874252255970266845e-09 5.065685886023271925e-09 4.732233080370159989e-09 1.453884326127188615e+03 1.583500414056911723e+03 1.282246697506039709e+03
1.199999999999999992e-10 4.758862629872620157e-09 3.130323077182257293e-09 2.710620268064866436e-09 7.179981436238304013e+02 -1.777058585406078919e+03 -1.119837442823665299e+02
1.199999999999999992e-10 7.551310937560531984e-09 1.092173093134748558e-10 2.230221848404967423e-09 -2.447957349605425406e+03 2.049773786455485265e+02 -2.559564188631611160e+03
1.199999999999999992e-10 9.770974578389165794e-09 2.689207818601411571e-09 7.124810215765973956e-09 3.099985459444343178e+03 -3.455081544425459924e+03 -9.161708535775499058e+02
ITEM: TIMESTEP
7500
ITEM: NUMBER OF ATOMS
10
ITEM: BOX BOUNDS f f f
0 1e-08
0 1e-08
0 1e-08
ITEM: ATOMS radius x y z v_x v_y v_z
1.199999999999999992e-10 4.901707032951030763e-09 2.756046857715771636e-09 4.798359801198910514e-09 -2.386176914038763641e+01 -4.524471788182725049e+02 -4.109771420651181302e+02
1.199999999999999992e-10 6.993529302560468234e-09 5.646610260837442331e-09 5.684126373594379407e-09 -1.648442342072315569e+03 3.134003520134157498e+03 -1.438757692741975006e+03
1.199999999999999992e-10 5.735541509455169354e-09 5.336387640202226063e-09 7.001536475500863974e-09 -4.027701377728348007e+02 6.584624747947216292e+02 2.114331391862312557e+03
1.199999999999999992e-10 8.337999182671508849e-09 2.687641903677898350e-09 8.974754057552821875e-09 -2.789449535433485380e+03 -1.010758123597748067e+03 6.896009037174517289e+02
1.199999999999999992e-10 5.852064241101015467e-09 9.145632405171157572e-09 7.520590801720254667e-09 -1.433998142034562079e+03 1.058368484419258266e+03 -2.241840275047701141e+02
1.199999999999999992e-10 8.845030619683468047e-09 3.078381420549752911e-09 1.530146101313266405e-09 2.454032578635293248e+03 8.614776921014698701e+02 6.927371066140576517e+00
1.199999999999999992e-10 9.994733261263862001e-09 5.260156968734399297e-09 4.663604424568209724e-09 -2.061709372115537349e+02 1.938668084804956607e+03 -2.573069552736243622e+03
1.199999999999999992e-10 4.845747195423560890e-09 2.966323187617046607e-09 2.658322440024566530e-09 9.502425151236917600e+02 -1.282212732530000949e+03 6.203606134217208137e+02
1.199999999999999992e-10 7.447661098574944246e-09 2.141519151975575932e-10 2.058409041826913988e-09 2.466409547118188129e+03 7.124987820879790661e+02 9.361335168806306228e+02
1.199999999999999992e-10 9.833967849201379706e-09 2.427319563245879423e-09 7.152078511491840251e-09 -8.756175017016065567e+02 -3.740380182944176340e+03 5.603083623915489397e+02
ITEM: TIMESTEP
7600
ITEM: NUMBER OF ATOMS
10
ITEM: BOX BOUNDS f f f
0 1e-08
0 1e-08
0 1e-08
ITEM: ATOMS radius x y z v_x v_y v_z
1.199999999999999992e-10 4.755142048210600726e-09 2.822053844248152644e-09 4.675784947566317265e-09 -3.119207893577149662e+03 5.772285582670077702e+02 -1.470618970939895007e+03
1.199999999999999992e-10 6.852521385652892931e-09 5.803987013952857972e-09 5.643238033611866523e-09 -7.137664751513643751e+02 -1.034045479948035222e+02 1.006743754914395709e+03
1.199999999999999992e-10 5.634765697534303889e-09 5.605179675214729649e-09 7.156627408516296236e-09 -1.744228952053253579e+03 2.018797992972952443e+03 -6.406140986574171166e+02
1.199999999999999992e-10 8.037829141607139179e-09 2.557488228479534294e-09 8.948018810624342024e-09 -5.508512231640554091e+03 -1.175550389972358971e+02 -2.330843308085874526e+02
1.199999999999999992e-10 5.786030227453868298e-09 9.213526511172014107e-09 7.583360126152393495e-09 -3.147667815479339879e+02 -1.562152596141322192e+03 1.582268223064411359e+03
1.199999999999999992e-10 9.073504776199027682e-09 3.108157071557119655e-09 1.509115540837531373e-09 2.727411932571616489e+03 6.071855885419486185e+02 -2.771759735575646459e+02
1.199999999999999992e-10 9.947553597718644920e-09 5.583316042405016307e-09 4.490312767895777540e-09 -1.571191050585775884e+02 1.644066818395571090e+03 -6.289747113042258206e+02
1.199999999999999992e-10 4.786761647752472759e-09 2.874068584533296826e-09 2.750349365391729250e-09 -1.296098481431560685e+03 -7.402440781232272116e+01 -1.955312058566722442e+02
1.199999999999999992e-10 7.671132194410817154e-09 3.089664693351838893e-10 2.141630515822893020e-09 1.430950457429164544e+02 2.212933072377478766e+03 2.183904761460927602e+03
1.199999999999999992e-10 9.871204353596674913e-09 2.284785408095147755e-09 7.350980676313773735e-09 7.470510918748391305e+02 -1.538102811090771183e+03 9.914112823056576644e+02
ITEM: TIMESTEP
7700
ITEM: NUMBER OF ATOMS
10
ITEM: BOX BOUNDS f f f
0 1e-08
0 1e-08
0 1e-08
ITEM: ATOMS radius x y z v_x v_y v_z
1.199999999999999992e-10 4.569206229095145619e-09 2.707238322090891124e-09 4.480116927248634956e-09 -1.494144290050926884e+03 4.501854598015203237e+02 -1.150143359045694751e+03
1.199999999999999992e-10 6.824234009917470116e-09 5.847058916376366186e-09 5.640227827890900083e-09 -8.053858030545731026e+02 1.199996520118745309e+02 -2.338566347519530154e+03
1.199999999999999992e-10 5.649841206520496823e-09 5.882914602460174649e-09 7.031873936986604408e-09 2.541301455901733846e+02 2.137794710402263718e+03 -2.738592271114908726e+03
1.199999999999999992e-10 7.651466997529195093e-09 2.595429653390618183e-09 9.096812125168411074e-09 -3.612039453210729334e+03 3.642945755429154246e+02 1.258477411531517646e+03
1.199999999999999992e-10 5.682159204682646601e-09 9.077628841412479153e-09 7.730352497979318799e-09 2.183028199795123783e+02 -2.188228681833837186e+01 1.501077239667384674e+03
1.199999999999999992e-10 9.201104365184241977e-09 2.986040808123361126e-09 1.497477215412029193e-09 5.553818064539257193e+02 -2.042578733109764471e+03 8.132636417833331279e+02
1.199999999999999992e-10 9.778096491189371003e-09 5.616771427504571654e-09 4.336752942349241131e-09 -1.461994118514131969e+03 1.533730546989877439e+03 -3.832218169254331769e+03
1.199999999999999992e-10 4.767443370661727273e-09 2.865983434271171743e-09 2.600598316946070537e-09 2.830748971389473809e+03 -6.891615142170726358e+02 -1.726672201069204903e+03
1.199999999999999992e-10 7.588127555558365838e-09 5.053912078012218540e-10 2.477621492469548743e-09 2.869321182743713621e+02 2.743391477063442835e+03 1.051576839254859578e+03
1.199999999999999992e-10 9.737352200241564411e-09 2.215597650367579787e-09 7.400995542276680599e-09 -2.883675186061429031e+03 -7.468779570337507039e+02 -6.794482598601360905e+02
ITEM: TIMESTEP
7800
ITEM: NUMBER OF ATOMS
10
ITEM: BOX BOUNDS f f f
0 1e-08
0 1e-08
0 1e-08
ITEM: ATOMS radius x y z v_x v_y v_z
1.199999999999999992e-10 4.554217108368728865e-09 2.468323294498705706e-09 4.532982122878057201e-09 9.610590666228973760e+02 -3.705209647104085434e+03 -7.254413845065585065e+02
1.199999999999999992e-10 6.604959415359679108e-09 5.859261459092058621e-09 5.494288170911102194e-09 -2.233711916736922831e+03 -2.151318962930381986e+03 -1.250696436928920775e+03
1.199999999999999992e-10 5.584442169298378529e-09 6.094070839698163704e-09 6.800903927752378520e-09 -2.102734224808878480e+03 2.474222587992119315e+03 4.939615284831478448e+02
1.199999999999999992e-10 7.595452592308862949e-09 2.680059958200974579e-09 9.149837745699634841e-09 6.341045273812209189e+02 1.760861814295075192e+03 -3.722426160454306228e+02
1.199999999999999992e-10 5.624565322800873242e-09 9.299464948751792299e-09 7.874651583274250011e-09 -1.223321260009579419e+03 1.559518780199361117e+03 -8.350585626855953478e+02
1.199999999999999992e-10 9.241711256399960003e-09 2.856074309203880858e-09 1.549748686692417307e-09 2.661311620613968785e+02 -2.768096227826124789e+01 1.688039373142403292e+02
1.199999999999999992e-10 9.835233252774318242e-09 5.800189410328311773e-09 3.922179338206009603e-09 1.865295161344350845e+03 1.552184133864536989e+03 -2.450436242821861924e+03
1.199999999999999992e-10 4.866892059607434151e-09 2.795190298663007952e-09 2.504292699627782244e-09 -2.387251401163688342e+02 -1.343402574849905704e+03 -7.899706117450857619e+02
1.199999999999999992e-10 7.433476324261155168e-09 6.434553494945964047e-10 2.555561931104585069e-09 -2.211383175699877484e+03 1.484713987665886634e+03 1.922543982636054125e+03
1.199999999999999992e-10 9.630411658674802470e-09 2.087804922958699489e-09 7.369818728466090769e-09 5.505977081964752529e+01 -4.941688940644214654e+02 -1.033952416981234592e+03
ITEM: TIMESTEP
7900
ITEM: NUMBER OF ATOMS
10
ITEM: BOX BOUNDS f f f
0 1e-08
0 1e-08
0 1e-08
ITEM: ATOMS radius x y z v_x v_y v_z
1.199999999999999992e-10 4.563664980324962651e-09 2.271277192926732234e-09 4.543132395649603779e-09 -1.150077997103886446e+03 -3.390691855487899602e+02 -7.266095942262613505e+01
1.199999999999999992e-10 6.265019235455659830e-09 5.677961678678115898e-09 5.385191346102528138e-09 -1.511959257162924587e+03 -9.954526400008659266e+02 -3.066096330155345981e+02
1.199999999999999992e-10 5.453976893208822835e-09 6.221649149062066577e-09 6.816191639231314786e-09 -1.813514065893845100e+03 -8.891806865480238002e+02 2.655919001787257002e+03
1.199999999999999992e-10 7.673061698604155977e-09 2.721385920549807380e-09 9.031214290596057006e-09 7.176800807854750701e+02 1.414831269019938986e+02 -2.214119099023746912e+03
1.199999999999999992e-10 5.536795438736162842e-09 9.404828480156116207e-09 7.769271312285571415e-09 -9.080627265708289997e+02 6.188023497474906662e+02 3.679316337151349785e+02
1.199999999999999992e-10 9.198883217091648532e-09 2.763286684413482103e-09 1.576707824171448704e-09 -1.477550827024545242e+03 -1.986907765702155757e+03 -1.215797697193986323e+03
1.199999999999999992e-10 9.944284533451092258e-09 5.841377301407108992e-09 3.951180647557100523e-09 -3.174159574089554212e+02 1.658612918680359371e+03 2.099269066853597451e+03
1.199999999999999992e-10 4.832384155963109358e-09 2.687965701845683187e-09 2.585300921062430902e-09 -1.354564994413536169e+03 -2.957504907707804250e+03 1.841772099403596030e+03
1.199999999999999992e-10 7.520188793690417963e-09 7.854342586409123708e-10 2.725780088191813227e-09 2.165788464258485874e+03 5.666398356961108220e+02 1.201310038227436962e+03
1.199999999999999992e-10 9.409402637386078213e-09 2.030643448757371847e-09 7.323018022265135754e-09 -2.813602111606953713e+03 -4.806378351208362574e+02 -6.887989894800560933e+02
ITEM: TIMESTEP
8000
ITEM: NUMBER OF ATOMS
10
ITEM: BOX BOUNDS f f f
0 1e-08
0 1e-08
0 1e-08
ITEM: ATOMS radius x y z v_x v_y v_z
1.199999999999999992e-10 4.501742999928996814e-09 2.280503643084371025e-09 4.591435224839492784e-09 -8.982895144083957462e+01 3.693966272927734735e+02 2.552174547530879067e+02
1.199999999999999992e-10 6.294995423853598876e-09 5.578007087100376593e-09 5.462024935779333472e-09 2.093385840782489140e+03 -8.198860278152549199e+02 9.522165628649786413e+02
1.199999999999999992e-10 5.307701666883900595e-09 6.178000544952682182e-09 6.959887631222852565e-09 -1.194389536547768785e+03 6.494140453158458968e+02 3.555940148651125128e+03
1.199999999999999992e-10 7.770710722751104120e-09 2.762333788655321177e-09 8.895850500806417758e-09 7.373281176275891085e+02 2.090787484925599529e+03 -2.127293665622805747e+03
1.199999999999999992e-10 5.437107788104056472e-09 9.454090645196336955e-09 7.603092431847947466e-09 -1.855709708218019841e+03 -4.715607199397736053e+02 -2.979751717931630083e+03
1.199999999999999992e-10 9.242580534329134345e-09 2.712812300473192156e-09 1.549337028666367668e-09 6.513323959535038057e+02 1.947718805844565395e+02 5.383374266176407446e+02
1.199999999999999992e-10 9.673623439101426627e-09 5.876039556389268130e-09 4.009579332713396672e-09 -3.383171245175701188e+03 1.149707580055716562e+03 -8.328036765663277947e+02
1.199999999999999992e-10 4.825752067508763323e-09 2.646887326454693187e-09 2.687446989763443603e-09 1.589877261736147602e+03 -2.501622067286699860e+02 7.274750311010782298e+02
1.199999999999999992e-10 7.634894275960243374e-09 8.498054703021135204e-10 2.901582258777499805e-09 -3.034372659740549807e+02 -1.671046570495761330e+02 4.689314105197818208e+02
1.199999999999999992e-10 9.146566526131093710e-09 2.004234596220421151e-09 7.362960768528366999e-09 -8.014522783884597175e+02 5.683198255453287402e+02 1.761422733957753735e+03
ITEM: TIMESTEP
8100
ITEM: NUMBER OF ATOMS
10
ITEM: BOX BOUNDS f f f
0 1e-08
0 1e-08
0 1e-08
ITEM: ATOMS radius x y z v_x v_y v_z
1.199999999999999992e-10 4.519551257310107082e-09 2.231162944987901826e-09 4.506643663207416637e-09 -3.114003275914571987e+02 -1.827021352461785227e+03 -6.149215995087264446e+02
1.199999999999999992e-10 6.581644018258007416e-09 5.564190014033017756e-09 5.465497864475339291e-09 2.400858103917499193e+03 -6.310658397267884538e+02 -8.626123413875391179e+02
1.199999999999999992e-10 5.281335412464591572e-09 6.246124894551935623e-09 7.247497159129170524e-09 4.923066507973582020e+02 1.491062182937183707e+03 3.092259334088335436e+03
1.199999999999999992e-10 7.815609781678664115e-09 2.825619010874900604e-09 8.906442332411397278e-09 -3.004337804553916840e+02 -1.846278814830754982e+02 5.712506931485365840e+02
1.199999999999999992e-10 5.458713720329608819e-09 9.594008898292723310e-09 7.420274204549960058e-09 2.121618194010111438e+03 2.100896747207953922e+03 -6.575021862977754381e+02
1.199999999999999992e-10 9.269407053861285754e-09 2.712315259289953514e-09 1.581050077885583644e-09 9.799674813730302958e+02 -1.601797447480821575e+03 6.519696464045434823e+02
1.199999999999999992e-10 9.462744939985348172e-09 5.970841619689339717e-09 3.977501519963842813e-09 -2.702135196396511674e+03 -8.487962788880487324e+02 -1.037413799705566817e+03
1.199999999999999992e-10 4.835645825601924709e-09 2.408659870914668894e-09 2.767285421137835460e-09 -4.223060375306980063e+01 -1.852949054671080148e+03 -1.087668644498177628e+03
1.199999999999999992e-10 7.554754443555836995e-09 8.952713206004986292e-10 3.112590501393595490e-09 -5.155701326687581059e+02 9.788375327116739300e+02 4.015490029362385485e+03
1.199999999999999992e-10 8.999746277134509089e-09 1.971281957328381451e-09 7.718416443892733232e-09 -1.542858037844158844e+03 1.698153073950026737e+03 4.200730860423449485e+03
ITEM: TIMESTEP
8200
ITEM: NUMBER OF ATOMS
10
ITEM: BOX BOUNDS f f f
0 1e-08
0 1e-08
0 1e-08
ITEM: ATOMS radius x y z v_x v_y v_z
1.199999999999999992e-10 4.452693221845050891e-09 2.156362893393565991e-09 4.586528417172555915e-09 -2.368707480711997846e+02 -3.286690476115678621e+02 2.627070069212938961e+02
1.199999999999999992e-10 6.691872808056814062e-09 5.508587679424506774e-09 5.392448947466404929e-09 -3.677633651142384679e+02 2.459049986906908032e+02 1.741530467126914061e+02
1.199999999999999992e-10 5.179919653234505250e-09 6.151328398554808352e-09 7.410804548290320133e-09 -2.351798089844706737e+03 -2.242308091992488244e+03 6.880317152073689613e+02
1.199999999999999992e-10 7.762229800127522220e-09 2.749462427335335269e-09 8.926947096393696819e-09 -1.382746804681665935e+02 5.827909666678382337e+02 -1.503694661354251366e+03
1.199999999999999992e-10 5.672861218751940636e-09 9.733435668897453226e-09 7.306573385974659898e-09 1.432900410103246031e+03 7.820063474588783947e+02 -9.064491128950818393e+02
1.199999999999999992e-10 9.388151618348381158e-09 2.490767731433178602e-09 1.575431957618131412e-09 5.070649538321923728e+02 -1.317988147526379407e+03 -1.774043329259368647e+03
1.199999999999999992e-10 9.259826213275953416e-09 5.875826713325850870e-09 3.859580796842913684e-09 -1.079776464440021755e+03 -3.052131158634322674e+03 4.777626545801126667e+01
1.199999999999999992e-10 4.874765964027036483e-09 2.286451266902204646e-09 2.556332112610520070e-09 -1.875247001310839323e+03 1.312890110020743805e+03 -1.766903955437693412e+03
1.199999999999999992e-10 7.611395771558595605e-09 8.901975600722414824e-10 3.293910603822098487e-09 1.777278133772473666e+03 -1.475444839260484287e+03 1.122950641336067292e+03
1.199999999999999992e-10 8.920311652456856173e-09 2.183106893479689850e-09 7.905810307463323633e-09 -1.480960252510847340e+03 1.801195001832860271e+03 2.236709907210045003e+02
ITEM: TIMESTEP
8300
ITEM: NUMBER OF ATOMS
10
ITEM: BOX BOUNDS f f f
0 1e-08
0 1e-08
0 1e-08
ITEM: ATOMS radius x y z v_x v_y v_z
1.199999999999999992e-10 4.413438152421554950e-09 2.096902162733295676e-09 4.600843695088313137e-09 -5.733200233501979710e+02 -2.107453748320481850e+02 6.223647577730170042e+02
1.199999999999999992e-10 6.670918099401755861e-09 5.536713878424528973e-09 5.314369883733128562e-09 1.421598104944459465e+03 -1.425491115449116023e+03 -8.243557445377580279e+02
1.199999999999999992e-10 5.002486147199500806e-09 5.886087707512463815e-09 7.425272374644057435e-09 -9.848222800471163509e+02 -7.416596134607825661e+02 -1.212528332299311842e+02
1.199999999999999992e-10 7.784564912849273254e-09 2.774490790004240546e-09 9.009221806008439163e-09 -1.335588745494443970e+02 -7.945026601674493349e+02 3.073039322786540197e+03
1.199999999999999992e-10 5.892160553158370606e-09 9.660251582270577300e-09 7.318460905081504768e-09 1.844517479707025814e+03 -1.263498122033968230e+03 2.148429610451669305e+03
1.199999999999999992e-10 9.437017591310341322e-09 2.330508675661005447e-09 1.304021999380811706e-09 8.106641958685833060e+02 -1.045713815685327518e+03 -1.204223745397721132e+03
1.199999999999999992e-10 9.135809793195136290e-09 5.687002507304108907e-09 3.740823403685018658e-09 -2.103072867449278419e+03 -1.660313236003335760e+03 -1.710821378024475962e+03
1.199999999999999992e-10 4.813025611596745160e-09 2.314687792669686420e-09 2.482424364591190075e-09 8.964063099005129516e+02 -5.108702291281085763e+02 4.132387375650744161e+02
1.199999999999999992e-10 7.588733269315487366e-09 7.546838856071124793e-10 3.272274079728165176e-09 -3.925537685800709369e+02 -8.073588630319998174e+02 -7.072907536278472662e+02
1.199999999999999992e-10 8.885651795205779430e-09 2.189205243932683009e-09 8.020152375902204438e-09 -1.770993060019679433e+03 4.086717360238330912e+02 5.672234560233954426e+01
ITEM: TIMESTEP
8400
ITEM: NUMBER OF ATOMS
10
ITEM: BOX BOUNDS f f f
0 1e-08
0 1e-08
0 1e-08
ITEM: ATOMS radius x y z v_x v_y v_z
1.199999999999999992e-10 4.380553558575166787e-09 2.058430725589329912e-09 4.646695544894149003e-09 9.432038158482661174e+02 -2.162590719731754689e+03 -3.820398742481146428e+02
1.199999999999999992e-10 6.760536882921445650e-09 5.237765213774264415e-09 5.280606015072393357e-09 1.391477301627051020e+03 -3.043175031974695230e+03 -1.434988904477660981e+03
1.199999999999999992e-10 4.860366751609642638e-09 5.836935069708532228e-09 7.375447128706396681e-09 -1.048045725825790896e+03 -1.485487266443522913e+03 -6.737720186694991753e+01
1.199999999999999992e-10 7.672195303018355779e-09 2.710735573660469428e-09 9.010295362640105544e-09 -1.922788764895158465e+03 -5.631552488707341126e+02 2.911835107320954990e+02
1.199999999999999992e-10 6.136237351791779790e-09 9.482448202460896145e-09 7.311743998605130147e-09 2.398882243409812872e+03 -1.636711617030489379e+03 -1.051090315952456251e+02
1.199999999999999992e-10 9.613496793078820331e-09 2.336453775905936991e-09 1.128501269621267346e-09 1.908170312654812051e+03 5.943580381851016625e+01 -3.269406769236013588e+00
1.199999999999999992e-10 9.000451366891344393e-09 5.550367649561134993e-09 3.708926037724891498e-09 -8.326309913698818264e+02 -1.395610187012597635e+03 -2.474429498977384014e+02
1.199999999999999992e-10 4.876733477080344603e-09 2.420383446372097228e-09 2.532490006082200117e-09 1.487200210781883811e+02 1.364296192641378639e+03 -9.455266143558690146e+02
1.199999999999999992e-10 7.429593227877843219e-09 6.707749069670954496e-10 3.254641907080303354e-09 -1.472858738038125011e+03 -1.281155458484432074e+03 -7.763399541035294078e+02
1.199999999999999992e-10 8.794898696260658383e-09 2.384526428064477453e-09 7.901669270510035767e-09 -7.510563460095685286e+02 1.985564801529471424e+03 3.084603154725646164e+02
ITEM: TIMESTEP
8500
ITEM: NUMBER OF ATOMS
10
ITEM: BOX BOUNDS f f f
0 1e-08
0 1e-08
0 1e-08
ITEM: ATOMS radius x y z v_x v_y v_z
1.199999999999999992e-10 4.402475715169067776e-09 1.897008530642593723e-09 4.558958001773082659e-09 -1.702982906503457116e+03 -1.371176392083545124e+03 -1.449033815303086385e+03
1.199999999999999992e-10 6.802562018712999230e-09 4.989420233497496971e-09 5.164133581130580386e-09 5.345368493040164140e+02 -4.524052498723391182e+03 -1.871100410781860319e+03
1.199999999999999992e-10 4.846503121931306677e-09 5.735526999240893683e-09 7.217889108660315389e-09 -8.772721975855108667e+02 9.991208785588318051e+02 -1.203752169488864865e+03
1.199999999999999992e-10 7.482350994024958271e-09 2.783925124104275085e-09 8.834528117590206975e-09 1.708186049828656905e+03 2.111148069809095432e+03 -3.208106422932230998e+03
1.199999999999999992e-10 6.345340822742364978e-09 9.467946649862323574e-09 7.511942322206498503e-09 2.229929329476897237e+03 -3.374658894557309736e+02 1.920693406772796834e+03
1.199999999999999992e-10 9.621507693919658661e-09 2.193201623064327817e-09 1.196928703298630558e-09 -7.281974623789665202e+02 2.222142004958753034e+02 2.571897386428083792e+02
1.199999999999999992e-10 9.089087684302874119e-09 5.560997878536816545e-09 3.519586975302481038e-09 1.343177363345060712e+03 7.089982307822575649e+02 -2.729962909237329313e+03
1.199999999999999992e-10 5.033560559964265952e-09 2.532417902550462093e-09 2.482992145872781286e-09 1.708815317899761340e+03 3.269553580328843054e+02 2.870283244985804458e+02
1.199999999999999992e-10 7.346443311336128069e-09 7.730310096513329479e-10 3.187716245402496524e-09 3.490386579910664295e+02 8.086330208462738938e+02 8.388485854781504258e+02
1.199999999999999992e-10 8.785658608527721336e-09 2.502084447682891204e-09 7.851915283522801319e-09 -7.884746139198183528e+02 2.106454093653366272e+03 -1.870388185854872063e+02
ITEM: TIMESTEP
8600
ITEM: NUMBER OF ATOMS
10
ITEM: BOX BOUNDS f f f
0 1e-08
0 1e-08
0 1e-08
ITEM: ATOMS radius x y z v_x v_y v_z
1.199999999999999992e-10 4.175945836408050821e-09 1.645620003698757496e-09 4.399642204832606477e-09 -2.964834350198303127e+03 -2.719704456046198629e+03 -1.807503014185650954e+03
1.199999999999999992e-10 6.761541661724443846e-09 4.845846007117604350e-09 5.099155357229133139e-09 -2.504223350830792242e+03 1.419836623881783680e+03 2.777141231296768638e+02
1.199999999999999992e-10 4.775467092089131403e-09 5.901999102164092471e-09 7.265112808488005094e-09 6.223611326851098511e+02 1.699029036273430165e+03 1.597999108216897184e+03
1.199999999999999992e-10 7.560218479550870735e-09 2.931744150581977530e-09 8.589961377043073251e-09 3.290186150698358460e+02 8.167005876385677539e+02 -2.690796705218418992e+03
1.199999999999999992e-10 6.413824248247241294e-09 9.486712787703571702e-09 7.677950780984098949e-09 -1.365644614384609440e+03 -1.228631779591939903e+03 1.103985846354373507e+03
1.199999999999999992e-10 9.756165055193496801e-09 2.211167436270939618e-09 1.152800156788887219e-09 2.813672337018477720e+03 1.565990704656149433e+02 -1.364689118029937845e+03
1.199999999999999992e-10 9.258131782487881585e-09 5.616586951489144924e-09 3.244303878752977634e-09 1.235427734312883103e+03 1.302976367504282280e+03 -2.384839215509126916e+03
1.199999999999999992e-10 5.229398149836165697e-09 2.404744785798524828e-09 2.617805314788893991e-09 6.596896682426965981e+02 -2.121949897285394400e+03 1.658331512238805772e+03
1.199999999999999992e-10 7.223422869155986289e-09 6.516992700315069874e-10 3.208113104871032281e-09 -1.066340927465574623e+03 -2.287682190980577616e+03 -6.577587339306858212e+02
1.199999999999999992e-10 8.783949358059535707e-09 2.531617377274597360e-09 7.757023388202644646e-09 1.828874544083603723e+03 -1.572586277206384011e+03 -2.083880587027827460e+03
ITEM: TIMESTEP
8700
ITEM: NUMBER OF ATOMS
10
ITEM: BOX BOUNDS f f f
0 1e-08
0 1e-08
0 1e-08
ITEM: ATOMS radius x y z v_x v_y v_z
1.199999999999999992e-10 4.041604639340472946e-09 1.537725195056958025e-09 4.230394570984716537e-09 -1.228070330844916214e+02 -1.134099595817018553e+03 -2.909854075945089335e+03
1.199999999999999992e-10 6.558163297758888798e-09 4.924551967202804599e-09 5.084253175595161697e-09 -3.926441871439998863e+02 8.158921028733082039e+02 2.056876283290209813e+02
1.199999999999999992e-10 4.651840756530586559e-09 6.099610461330610771e-09 7.296001350776267697e-09 -1.479413297384955285e+03 8.703316432465330763e+02 3.827173493924590275e+02
1.199999999999999992e-10 7.590645879953087169e-09 2.908985006872555632e-09 8.449096846459435720e-09 8.621235260430727294e+02 -2.169148569920624141e+03 2.866854662213495999e+02
1.199999999999999992e-10 6.417847790926422847e-09 9.446855949632269971e-09 7.837912784166160764e-09 -1.619412374777986656e+02 1.229791655289201117e+03 2.334065586745525252e+03
1.199999999999999992e-10 9.789017779632290309e-09 2.191560279970128683e-09 1.207134909088954338e-09 -9.517379209364155486e+02 9.893420817834858099e+02 1.547054217115033623e+02
1.199999999999999992e-10 9.446667874409238935e-09 5.726532716379941028e-09 3.134118631841637218e-09 2.114264329746441945e+03 1.686712969979365425e+03 -1.146749707726077986e+03
1.199999999999999992e-10 5.305251636568272817e-09 2.177162326855108316e-09 2.597596058218298073e-09 2.496701316933242083e+02 -1.517957152746948395e+03 -1.352704356906592011e+03
1.199999999999999992e-10 7.108522066424550363e-09 8.568931667767005769e-10 3.188118129085057274e-09 -1.924972815985415309e+03 3.701787010617152646e+03 -4.900577469433693523e+02
1.199999999999999992e-10 8.955149596746641900e-09 2.296271548546543626e-09 7.615777495477880073e-09 3.072490728721995310e+03 -1.786293915971918523e+03 -3.191641623553081786e+01
ITEM: TIMESTEP
8800
ITEM: NUMBER OF ATOMS
10
ITEM: BOX BOUNDS f f f
0 1e-08
0 1e-08
0 1e-08
ITEM: ATOMS radius x y z v_x v_y v_z
1.199999999999999992e-10 4.038413548475844252e-09 1.417810155729362634e-09 4.090503057704186134e-09 1.250823217024934365e+03 -1.336689106552452358e+03 -8.335362959305327877e+02
1.199999999999999992e-10 6.502977422123334065e-09 4.944471745328785481e-09 5.118441126787167042e-09 1.005488800894961855e+03 -1.302231577360931169e+03 2.027912261673431203e+03
1.199999999999999992e-10 4.662825783163545982e-09 6.034126723564580162e-09 7.475937258408907265e-09 6.081918074601181843e+02 -1.529261005712207862e+03 1.140221322142212102e+03
1.199999999999999992e-10 7.590729740327521324e-09 2.707886776299774176e-09 8.498498403732450138e-09 4.414285111903510597e+02 -1.738318245209450424e+03 6.393430103542715415e+02
1.199999999999999992e-10 6.367120619221326192e-09 9.403743377744922634e-09 7.905380500855442899e-09 -1.040840742844327224e+03 -2.930765026210453016e+03 1.866164449963755715e+03
1.199999999999999992e-10 9.718399383836443820e-09 2.033260402248515330e-09 1.234637105025904005e-09 1.144378288137733648e+02 -2.333937460671209919e+03 1.011059480089560111e+03
1.199999999999999992e-10 9.562907079701807836e-09 5.878422603522672359e-09 3.122044298076069537e-09 4.895996027540682007e+02 1.979718505440086574e+03 5.120379199734850317e+01
1.199999999999999992e-10 5.293385459929106588e-09 2.115205722022112634e-09 2.535463348986711694e-09 5.309885310500515061e+02 2.161424063114623095e+01 -7.350306283684346909e+02
1.199999999999999992e-10 6.740423260496577428e-09 1.006291414197848676e-09 3.180601143794603450e-09 -2.882931306193550427e+03 -1.644056338981186173e+03 8.168759633861374141e+02
1.199999999999999992e-10 9.273881215417418463e-09 2.250519589397536477e-09 7.583054281015415724e-09 2.740437899700262278e+03 -7.661180333577857482e+02 -1.707941682764491588e+03
ITEM: TIMESTEP
8900
ITEM: NUMBER OF ATOMS
10
ITEM: BOX BOUNDS f f f
0 1e-08
0 1e-08
0 1e-08
ITEM: ATOMS radius x y z v_x v_y v_z
1.199999999999999992e-10 4.211122572794170929e-09 1.324538295732080705e-09 3.973832447893544113e-09 3.648882542302839056e+02 -1.249972045624310795e+03 -1.581487667435047797e+02
1.199999999999999992e-10 6.553679249449960281e-09 4.869834642608818790e-09 5.278242753482423567e-09 1.225249847524214374e+03 -9.459691583338743612e+02 6.349016515554853868e+02
1.199999999999999992e-10 4.648739495419657408e-09 5.941700439237698639e-09 7.482715498024891425e-09 -1.706161737644913728e+03 3.601619010194395969e+02 -2.076238743003248601e+03
1.199999999999999992e-10 7.501423427772916404e-09 2.508536782469415195e-09 8.623336118454988542e-09 -2.993212376897760805e+03 -2.162036950864719074e+03 2.212801028726983077e+03
1.199999999999999992e-10 6.403875130997696488e-09 9.320254152246545644e-09 7.904081922192232253e-09 8.667665606280007751e+02 2.206958435561867304e+02 -9.354015673145672736e+02
1.199999999999999992e-10 9.852885267153975193e-09 1.890042690499820586e-09 1.309087428491618785e-09 8.241279515326946239e+02 -1.839541050401911207e+03 -1.537515746485023556e+03
1.199999999999999992e-10 9.495788188987319115e-09 6.112417042807719336e-09 3.108188051687848386e-09 -1.210430836309921006e+03 -8.553858470975058026e+00 8.576415450433125898e+01
1.199999999999999992e-10 5.371005584645468036e-09 2.127904740842493054e-09 2.504217983702790012e-09 2.177201273307265637e+03 -6.210726184114317903e+02 -1.418886523956497513e+03
1.199999999999999992e-10 6.636715682626066006e-09 1.001848665284551121e-09 3.172167057912208077e-09 4.476706915846614265e+02 4.924856324636766089e+02 -2.714263318117400559e+02
1.199999999999999992e-10 9.377546342919811882e-09 2.239962158195878855e-09 7.440235179133468728e-09 7.949812985279993427e+02 -3.904958179676992245e+02 -1.354202642442476190e+03
ITEM: TIMESTEP
9000
ITEM: NUMBER OF ATOMS
10
ITEM: BOX BOUNDS f f f
0 1e-08
0 1e-08
0 1e-08
ITEM: ATOMS radius x y z v_x v_y v_z
1.199999999999999992e-10 4.144775134574418647e-09 1.273493861866609095e-09 3.725378642952548769e-09 1.618708068692846780e+01 -2.901413443979873819e+02 -2.423973148013420996e+03
1.199999999999999992e-10 6.594685430372078881e-09 4.986146947960836476e-09 5.362448059831505654e-09 1.316129658674935285e+02 2.310790526814167606e+03 6.550939803406359943e+02
1.199999999999999992e-10 4.486061306697285321e-09 5.852744836073576547e-09 7.319988474612851763e-09 -2.031564123020618808e+03 -9.098251534479315978e+02 -9.436151661432789979e+02
1.199999999999999992e-10 7.395986508904362242e-09 2.465922317150725194e-09 8.885004018215858216e-09 8.769644457352396785e+02 -5.262966340305990798e+02 1.925347658539193844e+03
1.199999999999999992e-10 6.455344384146944097e-09 9.317826361283629822e-09 7.715071394513375048e-09 -1.278235525755233766e+03 -1.929898888043956049e+02 -1.298248420970401185e+03
1.199999999999999992e-10 9.791437030691582193e-09 1.787929455474466456e-09 1.206597400855509014e-09 -8.101835525481886862e+02 -2.125831048620905790e+02 -6.662378151368848194e+02
1.199999999999999992e-10 9.432988988697302165e-09 6.175416871389135767e-09 3.105116062191397020e-09 1.015470039515345889e+03 8.972473797307189898e+02 -1.018789520585576611e+03
1.199999999999999992e-10 5.386893341448771053e-09 2.157886938790314422e-09 2.365073535037867204e-09 -7.324851329402983993e+02 9.876748107867081217e+02 -2.320787728485237494e+03
1.199999999999999992e-10 6.749079639535173788e-09 1.046874535950627354e-09 3.061731127833531466e-09 6.049862072785597320e+02 -9.569931506041408511e+02 -1.973778981197306621e+03
1.199999999999999992e-10 9.413376447081790883e-09 2.315051244941775426e-09 7.265166204096576493e-09 -1.802171028647851699e+03 2.154834516300672931e+02 -1.908901714008711679e+03
ITEM: TIMESTEP
9100
ITEM: NUMBER OF ATOMS
10
ITEM: BOX BOUNDS f f f
0 1e-08
0 1e-08
0 1e-08
ITEM: ATOMS radius x y z v_x v_y v_z
1.199999999999999992e-10 4.160060138899274075e-09 1.127542247167220017e-09 3.458782622068603360e-09 1.433422734002182096e+03 -1.653252514441307085e+03 -3.481982779775573817e+03
1.199999999999999992e-10 6.769211665389574264e-09 5.130426402118560638e-09 5.463877222274491477e-09 1.806267478094015132e+03 1.286140048968252586e+03 9.932908469843451940e+02
1.199999999999999992e-10 4.317771518003679641e-09 5.830761261940345752e-09 7.214537081772051249e-09 -1.313763456141172583e+03 1.165150399336320334e+03 -8.089608180040302159e+02
1.199999999999999992e-10 7.508179661636381786e-09 2.303635636982879534e-09 9.088143386969185022e-09 1.834936757808466609e+03 -7.391044965113510443e+02 1.541240824583072026e+03
1.199999999999999992e-10 6.302088457083421404e-09 9.341357154824426296e-09 7.588565731613539232e-09 -1.235048167553408803e+03 1.170571873557611298e+03 1.035010046142224951e+02
1.199999999999999992e-10 9.783577417099058488e-09 1.762910944616818752e-09 1.405687141038955404e-09 -7.049440908761903302e+02 -5.937678034885899478e+02 1.573821758399578584e+03
1.199999999999999992e-10 9.650040387792863940e-09 6.315036266102242516e-09 3.074490182254491280e-09 2.812037626351846939e+03 -5.050691535286288172e+02 1.510107076598680578e+03
1.199999999999999992e-10 5.136954013838917931e-09 2.229863102509147074e-09 2.288007551646174915e-09 -2.529394301925609852e+03 3.121605855691454963e+03 -1.479069533005186088e+02
1.199999999999999992e-10 6.676261413432300065e-09 1.076653702306983092e-09 2.911520096136974229e-09 -7.724892814863794683e+02 -5.092078616957417125e+01 -6.309973055519924401e+02
1.199999999999999992e-10 9.236604023446412713e-09 2.390321643253735555e-09 7.040047659533536952e-09 -2.385831974916834042e+03 -3.774524694594653056e+02 -3.149326886526027465e+03
ITEM: TIMESTEP
9200
ITEM: NUMBER OF ATOMS
10
ITEM: BOX BOUNDS f f f
0 1e-08
0 1e-08
0 1e-08
ITEM: ATOMS radius x y z v_x v_y v_z
1.199999999999999992e-10 4.327008985131067036e-09 1.043243504904955716e-09 3.283671774752231532e-09 2.463675124911377679e+03 -8.064489078995885620e+02 -2.221381798511491979e+03
1.199999999999999992e-10 6.732359095898915271e-09 5.082937928807060291e-09 5.745308970351766876e-09 -1.659238986316101432e+02 -2.865816331478953998e+03 3.644311509064910297e+03
1.199999999999999992e-10 4.011381859716723180e-09 5.843203031794447880e-09 7.239575655978632540e-09 -4.352507388398350486e+03 1.201515979824394208e+03 9.418357477276226746e+02
1.199999999999999992e-10 7.651425646156385522e-09 2.331812343315225865e-09 9.150186820846375046e-09 -9.801857695498739531e+01 1.634905756738860646e+03 -7.466918427390075976e+02
1.199999999999999992e-10 6.178761079465313477e-09 9.371552522745234220e-09 7.610196545348461267e-09 -2.255676142844126389e+03 -1.107693587544599723e+03 9.176515283127998828e+02
1.199999999999999992e-10 9.756311792133811756e-09 1.661888246476575581e-09 1.557256373461299035e-09 1.686353876378057294e+03 -8.163860495935712152e+02 8.517121445257589585e+02
1.199999999999999992e-10 9.748189035717426942e-09 6.228181154062403359e-09 3.207459748044786909e-09 9.925483924420445874e+02 -1.305257734385619642e+03 -1.656227981601695660e+02
1.199999999999999992e-10 5.075140569608653995e-09 2.431956549208506939e-09 2.207369228536493001e-09 1.316397318687508289e+02 2.655846910170782849e+02 -2.679366033607762802e+03
1.199999999999999992e-10 6.604968251738128206e-09 9.101969519859296252e-10 3.002528439750059985e-09 -1.692070178072848648e+03 -2.286504950706961154e+03 5.812791184180730397e+02
1.199999999999999992e-10 9.086380262907487459e-09 2.308953855694003998e-09 6.826313328515843926e-09 -8.221558962326253095e+02 -2.244858104990017637e+03 2.646632873246600752e+02
ITEM: TIMESTEP
9300
ITEM: NUMBER OF ATOMS
10
ITEM: BOX BOUNDS f f f
0 1e-08
0 1e-08
0 1e-08
ITEM: ATOMS radius x y z v_x v_y v_z
1.199999999999999992e-10 4.490743312846772068e-09 1.001901726639701471e-09 3.077206230564400556e-09 8.588009083007594313e+01 -2.088024572486616250e+02 -2.552879154080690114e+03
1.199999999999999992e-10 6.724808623338143319e-09 5.021049446147216021e-09 5.903475508868369797e-09 -5.398914366884401943e+02 -1.105533926557350696e+03 9.094736115712456126e+01
1.199999999999999992e-10 3.720122448586279808e-09 5.979323868341943407e-09 7.226293234137940397e-09 -3.153701382347331219e+03 1.734812681758859526e+03 -6.517878139291195794e+02
1.199999999999999992e-10 7.518555233184338668e-09 2.562712909091033632e-09 9.148291753625484435e-09 -1.613817443758036916e+03 2.028493022618507666e+03 1.027176760107382506e+03
1.199999999999999992e-10 6.104243991502021642e-09 9.254445192594514345e-09 7.917299237745202713e-09 5.630155915802832851e+02 -2.914765799387553784e+02 2.886620795191974139e+03
1.199999999999999992e-10 9.806952351035256507e-09 1.623066100882849514e-09 1.605389449048868653e-09 7.031949805521032886e+02 -3.804770182097835800e+02 -1.245647140953193684e+03
1.199999999999999992e-10 9.651703588843006908e-09 6.272819155712828182e-09 3.260190762109028248e-09 -2.436576820005001082e+03 1.756078608943121026e+03 1.838315471631146067e+02
1.199999999999999992e-10 5.142343808864828677e-09 2.506282473276357143e-09 2.020377776649531442e-09 1.150800984215949256e+03 -8.156743290423662529e+02 -1.499225379950711840e+03
1.199999999999999992e-10 6.652104307886827934e-09 6.996988720881771363e-10 2.929941040741133560e-09 5.333137249639798938e+02 -2.244496998569645257e+03 -1.518760861874191278e+03
1.199999999999999992e-10 8.979444755794950294e-09 2.044496068827115577e-09 6.781390259533313600e-09 -1.903028887027481687e+03 -1.117816401756078221e+03 -3.917799403153097728e+02
ITEM: TIMESTEP
9400
ITEM: NUMBER OF ATOMS
10
ITEM: BOX BOUNDS f f f
0 1e-08
0 1e-08
0 1e-08
ITEM: ATOMS radius x y z v_x v_y v_z
1.199999999999999992e-10 4.536381157345655791e-09 7.906797188706582682e-10 2.805296858229443363e-09 1.564095064657471767e+03 -1.835771885001395049e+03 -1.561434249850098922e+03
1.199999999999999992e-10 6.721166503104013844e-09 5.109814032324228339e-09 5.939197721762239744e-09 5.102357128581539882e+02 2.087563888900027905e+03 3.976571182901684551e+02
1.199999999999999992e-10 3.501103033769971896e-09 5.995208550674620770e-09 7.244598076659255023e-09 -2.828146434880562992e+03 -1.810182392159903657e+03 -2.227854065787487059e+02
1.199999999999999992e-10 7.352672445634711027e-09 2.773345767919357159e-09 9.173483269321048018e-09 -9.902724500270787757e+02 1.500252698909655010e+03 3.671451621337606639e+02
1.199999999999999992e-10 6.191046566379960124e-09 9.127372636298889807e-09 8.151626141934275913e-09 3.958947659272325836e+00 -2.512548991048433436e+03 1.646304523990704638e+02
1.199999999999999992e-10 9.774619968482034211e-09 1.515037801008646972e-09 1.578157469698854721e-09 1.351563705305783060e+03 -6.987533622866907308e+02 -3.373356112599190055e+02
1.199999999999999992e-10 9.440264829391183529e-09 6.457726265059652130e-09 3.411705341615597393e-09 -2.164510466991010162e+03 2.001455979569479666e+02 1.460635309349727322e+03
1.199999999999999992e-10 5.120121914146737810e-09 2.474233905750023241e-09 1.898323789529746007e-09 -2.280918337050923128e+03 2.025001427368185887e+03 -1.760145265882062859e+03
1.199999999999999992e-10 6.704587707402663877e-09 4.310225541236466373e-10 2.816242299862529712e-09 -7.796912031096690043e+01 -2.471665639919990099e+03 -1.103611503714474793e+03
1.199999999999999992e-10 8.879349177150505496e-09 2.117343630673853059e-09 6.652763824801042040e-09 1.252274871566107095e+03 1.150335830051603125e+03 -3.385774455755366489e+03
ITEM: TIMESTEP
9500
ITEM: NUMBER OF ATOMS
10
ITEM: BOX BOUNDS f f f
0 1e-08
0 1e-08
0 1e-08
ITEM: ATOMS radius x y z v_x v_y v_z
1.199999999999999992e-10 4.653067533780646256e-09 6.160055917945236982e-10 2.750540700552649822e-09 -5.391198768109353523e+02 -1.055471589176860789e+03 2.865210906738172412e+02
1.199999999999999992e-10 6.722017614173951116e-09 5.116287342929979671e-09 5.932317517138227801e-09 -1.302134526345234690e+03 -8.339226686423872934e+02 -3.305241519470498133e+03
1.199999999999999992e-10 3.321853942278985815e-09 6.035559041112874377e-09 7.313562271288602743e-09 -1.781533212386355899e+03 9.917095631950318193e+02 1.532593920287491187e+02
1.199999999999999992e-10 7.320803219396973404e-09 2.860332552353845595e-09 9.167680248933909364e-09 -5.503231289216162168e+02 2.186449538059420661e+02 -3.201808057269952315e+02
1.199999999999999992e-10 6.126461826434515767e-09 9.077275207994896691e-09 8.326970779937379120e-09 -7.294357432279360864e+02 -1.509829534083251303e+02 -1.410831228995444064e+02
1.199999999999999992e-10 9.826422612026885646e-09 1.636935336718192620e-09 1.641793318292190373e-09 2.272026887964069886e+02 1.930242371137498367e+03 3.240671544242019309e+02
1.199999999999999992e-10 9.318178774017042869e-09 6.221096999445014984e-09 3.409035985792106757e-09 -2.264849708125133930e+03 -3.605857056376197306e+03 -7.258758615457589940e+02
1.199999999999999992e-10 4.984673894527660012e-09 2.571431296885776334e-09 1.627095065831573701e-09 -8.634583476855610797e+02 8.501315961661648544e+02 -3.610216603670004133e+03
1.199999999999999992e-10 6.456974867036580237e-09 1.961370848810849528e-10 2.860491206967061765e-09 -3.547744571937533237e+03 -8.631141758504836616e+02 3.791687416078707997e+02
1.199999999999999992e-10 8.956799297771245499e-09 2.137413058675869488e-09 6.532637085695112993e-09 1.279713534138612431e+03 3.672916455518300722e+02 5.190084972660670246e+02
ITEM: TIMESTEP
9600
ITEM: NUMBER OF ATOMS
10
ITEM: BOX BOUNDS f f f
0 1e-08
0 1e-08
0 1e-08
ITEM: ATOMS radius x y z v_x v_y v_z
1.199999999999999992e-10 4.741031887077075061e-09 4.826683305424655153e-10 2.842222699993038620e-09 7.356790527674638724e+02 -1.663804602722384061e+03 2.052363332366796385e+03
1.199999999999999992e-10 6.549114191710048464e-09 5.113907497456665913e-09 5.660937691736017542e-09 -3.224707826020201082e+03 8.631432894081763152e+02 2.803855938022780947e+02
1.199999999999999992e-10 3.178857401230114682e-09 6.222262167470794285e-09 7.269860777123430325e-09 -2.172098535323486431e+03 9.939792768992347192e+02 1.491787731729171469e+02
1.199999999999999992e-10 7.354023891349310627e-09 2.839993593858902919e-09 9.080684332134347842e-09 1.286645378085823950e+03 1.303689445544601995e+02 -1.553617581891748387e+03
1.199999999999999992e-10 6.101534686850856952e-09 8.992686082004428408e-09 8.334913790537866588e-09 -6.536241643910641415e+02 -8.506171277606882768e+02 -5.516177139339042697e+02
1.199999999999999992e-10 9.878102185022623134e-09 1.860478725842738616e-09 1.378179738226256937e-09 -4.509247436898037336e+02 8.361827742283430780e+02 -3.978492714304485162e+03
1.199999999999999992e-10 9.050012232427925713e-09 6.037185544723218978e-09 3.402917052410137499e-09 -1.728888767040376479e+03 -1.733327867716311403e+03 1.953188082810837614e+03
1.199999999999999992e-10 4.756513917066376905e-09 2.706223528700834675e-09 1.379552870449465359e-09 -3.178602338922756644e+03 1.707389255703005347e+03 -5.596426672648935892e+02
1.199999999999999992e-10 6.308006541984782563e-09 5.334946662614357734e-11 2.861171865851218781e-09 -9.151195944161794387e+02 -3.559618641671315800e+03 -1.064159980300260486e+03
1.199999999999999992e-10 8.774904061848259656e-09 2.205364479750583150e-09 6.571052925013412393e-09 -2.029739338433313605e+03 -2.364083960397743454e+02 -9.043723193687603725e+02
ITEM: TIMESTEP
9700
ITEM: NUMBER OF ATOMS
10
ITEM: BOX BOUNDS f f f
0 1e-08
0 1e-08
0 1e-08
ITEM: ATOMS radius x y z v_x v_y v_z
1.199999999999999992e-10 4.939574788583359079e-09 4.434837187933887244e-10 3.042418251182438334e-09 1.987238974356923563e+03 9.212149654741937184e+02 2.139913720881050267e+03
1.199999999999999992e-10 6.323381566362952503e-09 5.162602623887213720e-09 5.566568779400172961e-09 -1.829434021025224411e+03 -2.459781003593572279e+01 -1.328856388468985870e+03
1.199999999999999992e-10 3.160338277450088848e-09 6.246343539400877024e-09 7.391816964237347171e-09 3.015412964334101616e+03 2.512849661916440709e+03 1.831245074741850885e+03
1.199999999999999992e-10 7.512840489412694933e-09 2.799913204671186825e-09 8.977740466773598444e-09 4.394660876510259868e+02 -7.683876121586863519e+02 1.102362001192461776e+03
1.199999999999999992e-10 6.101070265325422931e-09 8.941411996029125526e-09 8.167269310306623540e-09 1.876332080413465974e+03 -9.516078077319776867e+02 -2.924343534578178151e+03
1.199999999999999992e-10 9.699507600693747487e-09 2.006570236072184833e-09 1.018335329315012253e-09 -3.852303944515918374e+03 2.160395164525114524e+03 -2.327274447368095480e+03
1.199999999999999992e-10 9.142908712055952512e-09 5.892676937378976466e-09 3.422974892522961135e-09 1.301502903916048581e+03 -2.513196939123462471e+03 -1.076160301980572285e+03
1.199999999999999992e-10 4.381159481229180832e-09 2.862493326606558801e-09 1.220033674940244790e-09 -2.822404858915204841e+03 2.281741881022632015e+02 -2.468956484535708569e+03
1.199999999999999992e-10 6.162275183681280852e-09 4.193176995774113092e-10 2.652024049272051032e-09 -9.984160674771947015e+02 4.394252352445781071e+03 -2.141142349902664137e+03
1.199999999999999992e-10 8.636778334846149944e-09 2.121004977910755053e-09 6.439168038367251930e-09 -5.732859008039871469e+02 -2.366330201503317312e+02 1.630875207195994960e+02
ITEM: TIMESTEP
9800
ITEM: NUMBER OF ATOMS
10
ITEM: BOX BOUNDS f f f
0 1e-08
0 1e-08
0 1e-08
ITEM: ATOMS radius x y z v_x v_y v_z
1.199999999999999992e-10 4.880374250020174813e-09 4.509554377929736783e-10 3.307917648270452983e-09 -4.101578146523301598e+02 1.233532329141646414e+03 1.852755900360684223e+02
1.199999999999999992e-10 6.285251163595349819e-09 5.075989069694622865e-09 5.343038513054577792e-09 -3.644503539951886069e+03 -1.411272963873276922e+03 -1.265601530941785313e+03
1.199999999999999992e-10 3.521028920023621731e-09 6.541957515182764123e-09 7.400901452640380781e-09 3.293441371355439514e+03 3.623627017287468789e+03 -5.636362210087288531e+02
1.199999999999999992e-10 7.725923818319259355e-09 2.752212722398212976e-09 9.028285491468846145e-09 2.308484944920995986e+03 1.387330524064524752e+03 1.659796671828964463e+03
1.199999999999999992e-10 6.155502686216218089e-09 8.786640760104629911e-09 7.742395329701681182e-09 2.009951300076155121e+03 -1.566747066342993321e+03 -4.495264402656340280e+03
1.199999999999999992e-10 9.401658115116162170e-09 2.218205375614273948e-09 8.824633087876601383e-10 -4.503807787892494161e+03 8.322946794628328462e+02 -1.343713107878680603e+03
1.199999999999999992e-10 9.263097678234559997e-09 5.788328995801335538e-09 3.356657198441857049e-09 -3.767431106706582113e+02 -2.039039655913941260e+02 1.263654968122309356e+03
1.199999999999999992e-10 4.197682894066733161e-09 2.792249372476290104e-09 1.311693230119149951e-09 6.370902183915490014e+02 -2.232493272387817342e+03 3.177698073546443538e+03
1.199999999999999992e-10 6.084728142827990642e-09 7.225440661732519726e-10 2.589336981327255406e-09 -7.255419391855398317e+02 2.872193627290566837e+03 -3.018564830772648975e+02
1.199999999999999992e-10 8.696856819226000889e-09 2.059477572705607009e-09 6.525666396501013143e-09 1.470182948666038556e+03 -2.141242350981501659e+02 2.564975627533257466e+03
ITEM: TIMESTEP
9900
ITEM: NUMBER OF ATOMS
10
ITEM: BOX BOUNDS f f f
0 1e-08
0 1e-08
0 1e-08
ITEM: ATOMS radius x y z v_x v_y v_z
1.199999999999999992e-10 4.687638240725026468e-09 5.161716422826567570e-10 3.289812128029817921e-09 -1.652682224071983455e+03 -9.304249851988728324e+02 5.009466847686891811e+02
1.199999999999999992e-10 6.106631674732465957e-09 5.187791269173014605e-09 5.299791303239460092e-09 -1.851776558614348460e+03 9.059289227484681533e+02 8.680470595877457640e+01
1.199999999999999992e-10 3.810257992965252630e-09 6.974264462913432564e-09 7.382088509405650333e-09 2.830269482170024730e+03 2.728125757693462219e+03 1.804991294496629735e+02
1.199999999999999992e-10 7.983270101948906499e-09 2.748097153702721370e-09 9.035279990453956312e-09 2.138675575212368585e+03 -3.015962633331074585e+02 -4.333097168073603598e+02
1.199999999999999992e-10 6.356858278356475769e-09 8.808428532354510695e-09 7.532272470678928884e-09 1.675188802476435967e+03 1.430547625511376054e+03 -4.164064223566991814e+02
1.199999999999999992e-10 9.018308945736598761e-09 2.177043349137199743e-09 1.127141506066294210e-09 -1.276383025391029150e+03 8.540356629473462817e+02 3.620348584142825075e+03
1.199999999999999992e-10 9.404771293055498207e-09 6.035904031265305689e-09 3.394327485678431688e-09 2.875509634012572405e+03 2.920362603975574530e+03 3.368165462344124990e+02
1.199999999999999992e-10 4.196538759313231977e-09 2.678688468113374719e-09 1.406813092383399068e-09 6.106271996132028335e+02 -9.727457051619777531e+02 -6.784007522030808701e+00
1.199999999999999992e-10 5.993375688337398680e-09 8.130560459046590463e-10 2.685908745259090727e-09 -4.966211257228223985e+01 -7.570734173426590132e+02 1.782948998855069703e+03
1.199999999999999992e-10 8.652204574524674490e-09 1.993482176170735498e-09 6.643548878509893944e-09 -2.375538619365628165e+03 -9.187702987053197603e+02 -7.739736254485954987e+02
ITEM: TIMESTEP
10000
ITEM: NUMBER OF ATOMS
10
ITEM: BOX BOUNDS f f f
0 1e-08
0 1e-08
0 1e-08
ITEM: ATOMS radius x y z v_x v_y v_z
1.199999999999999992e-10 4.587087297447281437e-09 4.527325500925353852e-10 3.257785593493157440e-09 -7.059213279361940749e+02 -1.375274597044700386e+03 -6.650603009402047974e+02
1.199999999999999992e-10 5.992646872009597968e-09 5.231102274615323545e-09 5.231245579735067968e-09 -1.405361025616903703e+02 -4.621173945266792202e+02 1.329265329950563682e+03
1.199999999999999992e-10 4.019415256529698716e-09 7.127401951518224478e-09 7.219654084622730659e-09 6.495016709091034954e+02 -3.802156892850575787e+02 -2.575158670032990358e+03
1.199999999999999992e-10 8.119372624690220719e-09 2.761922199212462628e-09 9.063809279928255368e-09 9.097230313948447247e+02 6.468802473959729014e+02 -1.111554894181381087e+03
1.199999999999999992e-10 6.325216425885500464e-09 8.866175972149796215e-09 7.524579078126435623e-09 -4.291100110567907677e+02 4.853678419867626417e+02 -1.416116344480558382e+03
1.199999999999999992e-10 9.067161916950985190e-09 2.242520851155823697e-09 1.437434774426494733e-09 1.374390183576354730e+03 2.792708434928416864e+03 1.733784342031836786e+03
1.199999999999999992e-10 9.490272663374063934e-09 6.220641876726498317e-09 3.323330023545996341e-09 6.011048498665453508e+02 8.716099042922051012e+02 -1.203607972423181991e+03
1.199999999999999992e-10 4.284488110936494614e-09 2.641440626068348556e-09 1.419121555118752898e-09 -8.402018179891487648e+01 -3.920519919812199987e+02 -7.179985999216119126e+02
1.199999999999999992e-10 6.033963741785692514e-09 8.761830480743078259e-10 2.776179023909030168e-09 -9.619128517056707324e+02 -6.766221527629031698e+02 1.434957978421977714e+03
1.199999999999999992e-10 8.360314936361843497e-09 1.986460522940757797e-09 6.606402185658969268e-09 -5.168367187940330041e+03 -2.969830288494426895e+01 -6.305757259652867219e+01
